COMPOUND_NAME: 1,8-Dimethylnaphthalene
SCANNUMBER: -1
IONMODE: positive
SPECTRUMTYPE: Centroid
FORMULA: C12H12
INCHIKEY: XAABPYINPXYOLM-UHFFFAOYSA-N
SMILES: CC1=C2C(=CC=CC2=CC=C1)C
AUTHORS: Price et al., RECETOX, Masaryk University (CZ)
INSTRUMENT: Q Exactive GC Orbitrap GC-MS/MS
IONIZATION: EI+
LICENSE: CC BY-NC
RETENTION_TIME: 3.2414
RETENTION_INDEX: 1452.8
PRECURSOR_MZ: 156.09254
ADDUCT: [M]+
COLLISION_ENERGY: 70
INSTRUMENT_TYPE: GC-EI-Orbitrap
CHARGE: 1
PARENT_MASS: 156.09308857990925
NUM PEAKS: 2
152.06131	0.19698443504008448
156.09254	0.8163107322368964

COMPOUND_NAME: 1-Nitronaphthalene
SCANNUMBER: -1
IONMODE: positive
SPECTRUMTYPE: Centroid
FORMULA: C10H7NO2
INCHIKEY: RJKGJBPXVHTNJL-UHFFFAOYSA-N
SMILES: C1=CC=C2C(=C1)C=CC=C2[N+](=O)[O-]
AUTHORS: Price et al., RECETOX, Masaryk University (CZ)
INSTRUMENT: Q Exactive GC Orbitrap GC-MS/MS
IONIZATION: EI+
LICENSE: CC BY-NC
RETENTION_TIME: 3.626
RETENTION_INDEX: 1569.5
PRECURSOR_MZ: 173.04709
ADDUCT: [M]+
COLLISION_ENERGY: 70
INSTRUMENT_TYPE: GC-EI-Orbitrap
CHARGE: 1
PARENT_MASS: 173.04763857990923
NUM PEAKS: 2
155.0603	0.3914659488078457
173.04709	0.45916786236555196	"Theoretical m/z 173.047135, Mass diff 0 (0.26 ppm), SMILES O=[N+]([O-])C2=CC=CC1=CC=CC=C12, Annotation [C10H7NO2]+, Rule of HR False"

COMPOUND_NAME: 2,2',3',4,4',5-Hexachloro-3-methoxybiphenyl
SCANNUMBER: -1
IONMODE: positive
SPECTRUMTYPE: Centroid
FORMULA: C13H6Cl6O
INCHIKEY: TXGGVMUGQFGMGI-UHFFFAOYSA-N
SMILES: COC1=C(C(=CC(=C1Cl)Cl)C2=C(C(=C(C=C2)Cl)Cl)Cl)Cl
AUTHORS: Price et al., RECETOX, Masaryk University (CZ)
INSTRUMENT: Q Exactive GC Orbitrap GC-MS/MS
IONIZATION: EI+
LICENSE: CC BY-NC
RETENTION_TIME: 6.5377
RETENTION_INDEX: 2492.5
PRECURSOR_MZ: 387.85245
ADDUCT: [M]+
COLLISION_ENERGY: 70
INSTRUMENT_TYPE: GC-EI-Orbitrap
CHARGE: 1
PARENT_MASS: 387.85299857990924
NUM PEAKS: 2
389.84943	1.0
391.84644	0.7786806716128238

COMPOUND_NAME: 2,2',3,3',4,5',6,6'-Octachlorobiphenyl
SCANNUMBER: -1
IONMODE: positive
SPECTRUMTYPE: Centroid
FORMULA: C12H2Cl8
INCHIKEY: HHXNVASVVVNNDG-UHFFFAOYSA-N
SMILES: C1=CC(=C(C(=C1Cl)C2=C(C(=C(C(=C2Cl)Cl)Cl)Cl)Cl)Cl)Cl
AUTHORS: Price et al., RECETOX, Masaryk University (CZ)
INSTRUMENT: Q Exactive GC Orbitrap GC-MS/MS
IONIZATION: EI+
LICENSE: CC BY-NC
RETENTION_TIME: 6.4888
RETENTION_INDEX: 2473.0
PRECURSOR_MZ: 425.76611
ADDUCT: [M]+
COLLISION_ENERGY: 70
INSTRUMENT_TYPE: GC-EI-Orbitrap
CHARGE: 1
PARENT_MASS: 425.7666585799093
NUM PEAKS: 2
427.76276	0.8192248596416407
429.75974	1.0

COMPOUND_NAME: 2,2',3,4,4',5',6-Heptabromodiphenyl ether
SCANNUMBER: -1
IONMODE: positive
SPECTRUMTYPE: Centroid
FORMULA: C12H3Br7O
INCHIKEY: ILPSCQCLBHQUEM-UHFFFAOYSA-N
SMILES: C1=C(C(=CC(=C1Br)Br)Br)OC2=C(C(=C(C=C2Br)Br)Br)Br
AUTHORS: Price et al., RECETOX, Masaryk University (CZ)
INSTRUMENT: Q Exactive GC Orbitrap GC-MS/MS
IONIZATION: EI+
LICENSE: CC BY-NC
RETENTION_TIME: 7.982
RETENTION_INDEX: 3206.1
PRECURSOR_MZ: 722.44855
ADDUCT: [M]+
COLLISION_ENERGY: 70
INSTRUMENT_TYPE: GC-EI-Orbitrap
CHARGE: 1
PARENT_MASS: 722.4490985799092
NUM PEAKS: 2
561.60644	1.0
721.44446	0.2208878287072461

COMPOUND_NAME: 2,2',3,4,5'-Pentachlorobiphenyl
SCANNUMBER: -1
IONMODE: positive
SPECTRUMTYPE: Centroid
FORMULA: C12H5Cl5
INCHIKEY: OPKYDBFRKPQCBS-UHFFFAOYSA-N
SMILES: C1=CC(=C(C=C1Cl)C2=C(C(=C(C=C2)Cl)Cl)Cl)Cl
AUTHORS: Price et al., RECETOX, Masaryk University (CZ)
INSTRUMENT: Q Exactive GC Orbitrap GC-MS/MS
IONIZATION: EI+
LICENSE: CC BY-NC
RETENTION_TIME: 5.6309
RETENTION_INDEX: 2162.5
PRECURSOR_MZ: 323.88104
ADDUCT: [M]+
COLLISION_ENERGY: 70
INSTRUMENT_TYPE: GC-EI-Orbitrap
CHARGE: 1
PARENT_MASS: 323.88158857990925
NUM PEAKS: 2
325.87805	1.0
327.87503	0.6391518042391598

COMPOUND_NAME: 2,2',3,5'-Tetrachlorobiphenyl
SCANNUMBER: -1
IONMODE: positive
SPECTRUMTYPE: Centroid
FORMULA: C12H6Cl4
INCHIKEY: ALDJIKXAHSDLLB-UHFFFAOYSA-N
SMILES: C1=CC(=C(C(=C1)Cl)Cl)C2=C(C=CC(=C2)Cl)Cl
AUTHORS: Price et al., RECETOX, Masaryk University (CZ)
INSTRUMENT: Q Exactive GC Orbitrap GC-MS/MS
IONIZATION: EI+
LICENSE: CC BY-NC
RETENTION_TIME: 5.0025
RETENTION_INDEX: 1962.9
PRECURSOR_MZ: 289.92108
ADDUCT: [M]+
COLLISION_ENERGY: 70
INSTRUMENT_TYPE: GC-EI-Orbitrap
CHARGE: 1
PARENT_MASS: 289.9216285799093
NUM PEAKS: 2
289.92108	0.782225155187021	"Theoretical m/z 289.921815, Mass diff 0.001 (2.53 ppm), SMILES C2=CC(C=1C=C(C=CC=1Cl)Cl)=C(C(=C2)Cl)Cl, Annotation [C12H6Cl4]+, Rule of HR False"
291.91809	0.9901037372836123

COMPOUND_NAME: 2,2',4,6,6'-Pentachlorobiphenyl
SCANNUMBER: -1
IONMODE: positive
SPECTRUMTYPE: Centroid
FORMULA: C12H5Cl5
INCHIKEY: MTCPZNVSDFCBBE-UHFFFAOYSA-N
SMILES: ClC1=CC(Cl)=C(C(Cl)=C1)C1=C(Cl)C=CC=C1Cl
AUTHORS: Price et al., RECETOX, Masaryk University (CZ)
INSTRUMENT: Q Exactive GC Orbitrap GC-MS/MS
IONIZATION: EI+
LICENSE: CC BY-NC
RETENTION_TIME: 5.085694
RETENTION_INDEX: 1989.28
PRECURSOR_MZ: 323.88263
ADDUCT: [M]+
COLLISION_ENERGY: 70
INSTRUMENT_TYPE: GC-EI-Orbitrap
CHARGE: 1
PARENT_MASS: 323.88317857990927
NUM PEAKS: 2
323.88263	0.6352013301417505	"Theoretical m/z 323.882844, Mass diff 0 (0.66 ppm), SMILES C2=CC(=C(C1=C(C=C(C=C1Cl)Cl)Cl)C(=C2)Cl)Cl, Annotation [C12H5Cl5]+, Rule of HR False"
325.87955	1.0

COMPOUND_NAME: 2,2',6-Trichlorobiphenyl
SCANNUMBER: -1
IONMODE: positive
SPECTRUMTYPE: Centroid
FORMULA: C12H7Cl3
INCHIKEY: MVXIJRBBCDLNLX-UHFFFAOYSA-N
SMILES: ClC1=CC=CC(Cl)=C1C1=C(Cl)C=CC=C1
AUTHORS: Price et al., RECETOX, Masaryk University (CZ)
INSTRUMENT: Q Exactive GC Orbitrap GC-MS/MS
IONIZATION: EI+
LICENSE: CC BY-NC
RETENTION_TIME: 4.279787
RETENTION_INDEX: 1748.66
PRECURSOR_MZ: 255.96074
ADDUCT: [M]+
COLLISION_ENERGY: 70
INSTRUMENT_TYPE: GC-EI-Orbitrap
CHARGE: 1
PARENT_MASS: 255.96128857990922
NUM PEAKS: 2
255.96074	0.8880442337659934	"Theoretical m/z 255.960786, Mass diff 0 (0.18 ppm), SMILES C=1C=CC(=C(C=1)C=2C(=CC=CC=2Cl)Cl)Cl, Annotation [C12H7Cl3]+, Rule of HR False"
257.9577	0.8514062405598836

COMPOUND_NAME: 2,3',4,4',5',6-Hexachlorobiphenyl
SCANNUMBER: -1
IONMODE: positive
SPECTRUMTYPE: Centroid
FORMULA: C12H4Cl6
INCHIKEY: PITHIPNORFGJPI-UHFFFAOYSA-N
SMILES: ClC1=CC(Cl)=C(C(Cl)=C1)C1=CC(Cl)=C(Cl)C(Cl)=C1
AUTHORS: Price et al., RECETOX, Masaryk University (CZ)
INSTRUMENT: Q Exactive GC Orbitrap GC-MS/MS
IONIZATION: EI+
LICENSE: CC BY-NC
RETENTION_TIME: 6.044
RETENTION_INDEX: 2305.4
PRECURSOR_MZ: 357.84381
ADDUCT: [M]+
COLLISION_ENERGY: 70
INSTRUMENT_TYPE: GC-EI-Orbitrap
CHARGE: 1
PARENT_MASS: 357.8443585799093
NUM PEAKS: 2
359.84076	1.0
361.83771	0.785287662262603

COMPOUND_NAME: 2,3',4,4',5-Pentachlorobiphenyl
SCANNUMBER: -1
IONMODE: positive
SPECTRUMTYPE: Centroid
FORMULA: C12H5Cl5
INCHIKEY: SXZSFWHOSHAKMN-UHFFFAOYSA-N
SMILES: C1=CC(=CC=C1C2=CC(=C(C(=C2Cl)Cl)Cl)Cl)Cl
AUTHORS: Price et al., RECETOX, Masaryk University (CZ)
INSTRUMENT: Q Exactive GC Orbitrap GC-MS/MS
IONIZATION: EI+
LICENSE: CC BY-NC
RETENTION_TIME: 5.9233
RETENTION_INDEX: 2262.5
PRECURSOR_MZ: 323.88257
ADDUCT: [M]+
COLLISION_ENERGY: 70
INSTRUMENT_TYPE: GC-EI-Orbitrap
CHARGE: 1
PARENT_MASS: 323.88311857990925
NUM PEAKS: 2
323.88257	0.6252434469776557	"Theoretical m/z 323.882844, Mass diff 0 (0.85 ppm), SMILES C1=CC(=CC=C1C2=CC(=C(C(=C2Cl)Cl)Cl)Cl)Cl, Annotation [C12H5Cl5]+, Rule of HR False"
325.87955	1.0

COMPOUND_NAME: 2,3',4,6-Tetrachlorobiphenyl
SCANNUMBER: -1
IONMODE: positive
SPECTRUMTYPE: Centroid
FORMULA: C12H6Cl4
INCHIKEY: CKUBKYSLNCKBOI-UHFFFAOYSA-N
SMILES: C1=CC(=CC(=C1)Cl)C2=C(C=C(C=C2Cl)Cl)Cl
AUTHORS: Price et al., RECETOX, Masaryk University (CZ)
INSTRUMENT: Q Exactive GC Orbitrap GC-MS/MS
IONIZATION: EI+
LICENSE: CC BY-NC
RETENTION_TIME: 4.9863
RETENTION_INDEX: 1958.0
PRECURSOR_MZ: 289.92172
ADDUCT: [M]+
COLLISION_ENERGY: 70
INSTRUMENT_TYPE: GC-EI-Orbitrap
CHARGE: 1
PARENT_MASS: 289.92226857990926
NUM PEAKS: 2
289.92172	0.8007852565584458	"Theoretical m/z 289.921815, Mass diff 0 (0.33 ppm), SMILES C1=CC(=CC(=C1)Cl)C2=C(C=C(C=C2Cl)Cl)Cl, Annotation [C12H6Cl4]+, Rule of HR False"
291.9187	1.0

COMPOUND_NAME: 2,3,3',4,4',5-Hexachlorobiphenyl
SCANNUMBER: -1
IONMODE: positive
SPECTRUMTYPE: Centroid
FORMULA: C12H4Cl6
INCHIKEY: LCXMEXLGMKFLQO-UHFFFAOYSA-N
SMILES: ClC1=CC(=C(Cl)C(Cl)=C1Cl)C1=CC(Cl)=C(Cl)C=C1
AUTHORS: Price et al., RECETOX, Masaryk University (CZ)
INSTRUMENT: Q Exactive GC Orbitrap GC-MS/MS
IONIZATION: EI+
LICENSE: CC BY-NC
RETENTION_TIME: 6.541684
RETENTION_INDEX: 2493.22
PRECURSOR_MZ: 357.84372
ADDUCT: [M]+
COLLISION_ENERGY: 70
INSTRUMENT_TYPE: GC-EI-Orbitrap
CHARGE: 1
PARENT_MASS: 357.8442685799093
NUM PEAKS: 2
359.84067	1.0
361.83762	0.8196277400440285

COMPOUND_NAME: 2,3,4,5,6-Pentabromoethylbenzene
SCANNUMBER: -1
IONMODE: positive
SPECTRUMTYPE: Centroid
FORMULA: C8H5Br5
INCHIKEY: FIAXCDIQXHJNIX-UHFFFAOYSA-N
SMILES: CCC1=C(C(=C(C(=C1Br)Br)Br)Br)Br
AUTHORS: Price et al., RECETOX, Masaryk University (CZ)
INSTRUMENT: Q Exactive GC Orbitrap GC-MS/MS
IONIZATION: EI+
LICENSE: CC BY-NC
RETENTION_TIME: 6.0947
RETENTION_INDEX: 2323.7
PRECURSOR_MZ: 500.62738
ADDUCT: [M]+
COLLISION_ENERGY: 70
INSTRUMENT_TYPE: GC-EI-Orbitrap
CHARGE: 1
PARENT_MASS: 500.6279285799093
NUM PEAKS: 2
499.62393	0.884756082083098
501.62189	0.8542762538968589

COMPOUND_NAME: 2,3,7,8-Tetrachlorodibenzofuran
SCANNUMBER: -1
IONMODE: positive
SPECTRUMTYPE: Centroid
FORMULA: C12H4Cl4O
INCHIKEY: KSMVNVHUTQZITP-UHFFFAOYSA-N
SMILES: C1=C2C3=CC(=C(C=C3OC2=CC(=C1Cl)Cl)Cl)Cl
AUTHORS: Price et al., RECETOX, Masaryk University (CZ)
INSTRUMENT: Q Exactive GC Orbitrap GC-MS/MS
IONIZATION: EI+
LICENSE: CC BY-NC
RETENTION_TIME: 6.0701
RETENTION_INDEX: 2314.8
PRECURSOR_MZ: 305.896606445313
ADDUCT: [M]+
COLLISION_ENERGY: 70
INSTRUMENT_TYPE: GC-EI-Orbitrap
CHARGE: 1
PARENT_MASS: 305.8971550252223
NUM PEAKS: 2
303.89954	0.777060536298122
305.89658	1.0

COMPOUND_NAME: 2,3-Benzofluorene
SCANNUMBER: -1
IONMODE: positive
SPECTRUMTYPE: Centroid
FORMULA: C17H12
INCHIKEY: HAPOJKSPCGLOOD-UHFFFAOYSA-N
SMILES: C1C2=CC=CC=C2C2=C1C=C1C=CC=CC1=C2
AUTHORS: Price et al., RECETOX, Masaryk University (CZ)
INSTRUMENT: Q Exactive GC Orbitrap GC-MS/MS
IONIZATION: EI+
LICENSE: CC BY-NC
RETENTION_TIME: 5.909
RETENTION_INDEX: 2257.5
PRECURSOR_MZ: 216.09326
ADDUCT: [M]+
COLLISION_ENERGY: 70
INSTRUMENT_TYPE: GC-EI-Orbitrap
CHARGE: 1
PARENT_MASS: 216.09380857990922
NUM PEAKS: 2
215.0855	1.0	"Theoretical m/z 215.086075, Mass diff 0 (0 ppm), Formula C17H11"
216.09326	0.6974772806686899	"Theoretical m/z 216.093354, Mass diff 0 (0.44 ppm), SMILES C=1C=CC2=CC4=C(C=C2(C=1))C3=CC=CC=C3C4, Annotation [C17H12]+, Rule of HR False"

COMPOUND_NAME: 2,4'-Dichlorodiphenyldichloroethane
SCANNUMBER: -1
IONMODE: positive
SPECTRUMTYPE: Centroid
FORMULA: C14H10Cl4
INCHIKEY: JWBOIMRXGHLCPP-UHFFFAOYSA-N
SMILES: ClC(Cl)C(C1=CC=C(Cl)C=C1)C1=C(Cl)C=CC=C1
AUTHORS: Price et al., RECETOX, Masaryk University (CZ)
INSTRUMENT: Q Exactive GC Orbitrap GC-MS/MS
IONIZATION: EI+
LICENSE: CC BY-NC
RETENTION_TIME: 5.6998
RETENTION_INDEX: 2185.6
PRECURSOR_MZ: 301.05832
ADDUCT: [M]+
COLLISION_ENERGY: 70
INSTRUMENT_TYPE: GC-EI-Orbitrap
CHARGE: 1
PARENT_MASS: 301.05886857990924
NUM PEAKS: 2
235.00748	1.0	"Theoretical m/z 235.007587, Mass diff 0 (0.46 ppm), SMILES C=1C=CC(=C(C=1)CC2=CC=C(C=C2)Cl)Cl, Annotation [C13H10Cl2-H]+, Rule of HR True"
237.00444	0.6310846305365071

COMPOUND_NAME: 2,4,4',5-Tetrachlorobiphenyl
SCANNUMBER: -1
IONMODE: positive
SPECTRUMTYPE: Centroid
FORMULA: C12H6Cl4
INCHIKEY: TULCXSBAPHCWCF-UHFFFAOYSA-N
SMILES: ClC1=CC=C(C=C1)C1=C(Cl)C=C(Cl)C(Cl)=C1
AUTHORS: Price et al., RECETOX, Masaryk University (CZ)
INSTRUMENT: Q Exactive GC Orbitrap GC-MS/MS
IONIZATION: EI+
LICENSE: CC BY-NC
RETENTION_TIME: 5.345488
RETENTION_INDEX: 2075.16
PRECURSOR_MZ: 289.92178
ADDUCT: [M]+
COLLISION_ENERGY: 70
INSTRUMENT_TYPE: GC-EI-Orbitrap
CHARGE: 1
PARENT_MASS: 289.9223285799093
NUM PEAKS: 2
289.92178	0.7731414078115137	"Theoretical m/z 289.921815, Mass diff 0 (0.12 ppm), SMILES C=1C=C(C=CC=1C=2C=C(C(=CC=2Cl)Cl)Cl)Cl, Annotation [C12H6Cl4]+, Rule of HR False"
291.9187	1.0

COMPOUND_NAME: 2,4-Di-tert-butyl-6-(5-chloro-2H-benzotriazol-2-yl)phenol
SCANNUMBER: -1
IONMODE: positive
SPECTRUMTYPE: Centroid
FORMULA: C20H24ClN3O
INCHIKEY: UWSMKYBKUPAEJQ-UHFFFAOYSA-N
SMILES: CC(C)(C)C1=CC(N2N=C3C=CC(Cl)=CC3=N2)=C(O)C(=C1)C(C)(C)C
AUTHORS: Price et al., RECETOX, Masaryk University (CZ)
INSTRUMENT: Q Exactive GC Orbitrap GC-MS/MS
IONIZATION: EI+
LICENSE: CC BY-NC
RETENTION_TIME: 6.9115
RETENTION_INDEX: 2652.8
PRECURSOR_MZ: 357.16022
ADDUCT: [M]+
COLLISION_ENERGY: 70
INSTRUMENT_TYPE: GC-EI-Orbitrap
CHARGE: 1
PARENT_MASS: 357.16076857990925
NUM PEAKS: 2
342.13669	1.0	"Theoretical m/z 342.136768, Mass diff 0 (0.23 ppm), SMILES OC1=C(C=C(C=C1C(C)(C)C)C(C)C)N2N=C3C=CC(=CC3(=N2))Cl, Annotation [C19H22ClN3O-H]+, Rule of HR True"
344.13367	0.3198490480102153

COMPOUND_NAME: 2,6-Dichloro-4-nitroaniline
SCANNUMBER: -1
IONMODE: positive
SPECTRUMTYPE: Centroid
FORMULA: C6H4Cl2N2O2
INCHIKEY: BIXZHMJUSMUDOQ-UHFFFAOYSA-N
SMILES: NC1=C(Cl)C=C(C=C1Cl)[N+]([O-])=O
AUTHORS: Price et al., RECETOX, Masaryk University (CZ)
INSTRUMENT: Q Exactive GC Orbitrap GC-MS/MS
IONIZATION: EI+
LICENSE: CC BY-NC
RETENTION_TIME: 4.2879
RETENTION_INDEX: 1755.7
PRECURSOR_MZ: 205.96413
ADDUCT: [M]+
COLLISION_ENERGY: 70
INSTRUMENT_TYPE: GC-EI-Orbitrap
CHARGE: 1
PARENT_MASS: 205.96467857990925
NUM PEAKS: 2
175.9661	1.0
205.96413	0.5544425468558416	"Theoretical m/z 205.964432, Mass diff 0 (1.47 ppm), SMILES O=[N+]([O-])C1=CC(=C(N)C(=C1)Cl)Cl, Annotation [C6H4Cl2N2O2]+, Rule of HR False"

COMPOUND_NAME: 2,6-Dimethylnaphthalene
SCANNUMBER: -1
IONMODE: positive
SPECTRUMTYPE: Centroid
FORMULA: C12H12
INCHIKEY: QHJMFSMPSZREIF-UHFFFAOYSA-N
SMILES: CC1=CC2=CC=CC=C2C(=C1)C
AUTHORS: Price et al., RECETOX, Masaryk University (CZ)
INSTRUMENT: Q Exactive GC Orbitrap GC-MS/MS
IONIZATION: EI+
LICENSE: CC BY-NC
RETENTION_TIME: 2.9965
RETENTION_INDEX: 1381.9
PRECURSOR_MZ: 156.09256
ADDUCT: [M]+
COLLISION_ENERGY: 70
INSTRUMENT_TYPE: GC-EI-Orbitrap
CHARGE: 1
PARENT_MASS: 156.09310857990923
NUM PEAKS: 2
155.08476	0.37306968105211635
156.09256	0.9930512291857664

COMPOUND_NAME: 2-Chlorobiphenyl
SCANNUMBER: -1
IONMODE: positive
SPECTRUMTYPE: Centroid
FORMULA: C12H9Cl
INCHIKEY: LAXBNTIAOJWAOP-UHFFFAOYSA-N
SMILES: ClC1=C(C=CC=C1)C1=CC=CC=C1
AUTHORS: Price et al., RECETOX, Masaryk University (CZ)
INSTRUMENT: Q Exactive GC Orbitrap GC-MS/MS
IONIZATION: EI+
LICENSE: CC BY-NC
RETENTION_TIME: 3.445773
RETENTION_INDEX: 1514.77
PRECURSOR_MZ: 188.0386
ADDUCT: [M]+
COLLISION_ENERGY: 70
CHARGE: 1
PARENT_MASS: 188.03914857990924
NUM PEAKS: 2
188.0386	1.0	"Theoretical m/z 188.038728, Mass diff 0 (0.68 ppm), SMILES C1=CC=C(C=C1)C=2C=CC=CC=2Cl, Annotation [C12H9Cl]+, Rule of HR False"
190.03554	0.3300592002149811

COMPOUND_NAME: 2-tert-Butyl-4-methoxyphenol
SCANNUMBER: -1
IONMODE: positive
SPECTRUMTYPE: Centroid
FORMULA: C11H16O2
INCHIKEY: MRBKEAMVRSLQPH-UHFFFAOYSA-N
SMILES: COC1=CC=C(O)C(=C1)C(C)(C)C
AUTHORS: Price et al., RECETOX, Masaryk University (CZ)
INSTRUMENT: Q Exactive GC Orbitrap GC-MS/MS
IONIZATION: EI+
LICENSE: CC BY-NC
RETENTION_TIME: 3.3902
RETENTION_INDEX: 1497.8
PRECURSOR_MZ: 180.11436
ADDUCT: [M]+
COLLISION_ENERGY: 70
INSTRUMENT_TYPE: GC-EI-Orbitrap
CHARGE: 1
PARENT_MASS: 180.11490857990924
NUM PEAKS: 2
165.09094	0.6228435747924583	"Theoretical m/z 165.091007, Mass diff 0 (0.41 ppm), SMILES OC1=CC=C(OC)C=C1C(C)C, Annotation [C10H14O2-H]+, Rule of HR True"
180.11436	0.3858741574842113	"Theoretical m/z 180.114487, Mass diff 0 (0.71 ppm), SMILES OC1=CC=C(OC)C=C1C(C)(C)C, Annotation [C11H16O2]+, Rule of HR False"

COMPOUND_NAME: 3,3',4,4',5-Pentachlorobiphenyl
SCANNUMBER: -1
IONMODE: positive
SPECTRUMTYPE: Centroid
FORMULA: C12H5Cl5
INCHIKEY: REHONNLQRWTIFF-UHFFFAOYSA-N
SMILES: ClC1=CC(=CC(Cl)=C1Cl)C1=CC(Cl)=C(Cl)C=C1
AUTHORS: Price et al., RECETOX, Masaryk University (CZ)
INSTRUMENT: Q Exactive GC Orbitrap GC-MS/MS
IONIZATION: EI+
LICENSE: CC BY-NC
RETENTION_TIME: 6.297563
RETENTION_INDEX: 2402.8
PRECURSOR_MZ: 323.88272
ADDUCT: [M]+
COLLISION_ENERGY: 70
INSTRUMENT_TYPE: GC-EI-Orbitrap
CHARGE: 1
PARENT_MASS: 323.88326857990927
NUM PEAKS: 2
325.87967	1.0
327.87662	0.640238279053527

COMPOUND_NAME: 3,4,4'-Trichlorobiphenyl
SCANNUMBER: -1
IONMODE: positive
SPECTRUMTYPE: Centroid
FORMULA: C12H7Cl3
INCHIKEY: YZANRISAORXTHU-UHFFFAOYSA-N
SMILES: ClC1=CC=C(C=C1)C1=CC(Cl)=C(Cl)C=C1
AUTHORS: Price et al., RECETOX, Masaryk University (CZ)
INSTRUMENT: Q Exactive GC Orbitrap GC-MS/MS
IONIZATION: EI+
LICENSE: CC BY-NC
RETENTION_TIME: 5.16207
RETENTION_INDEX: 2014.02
PRECURSOR_MZ: 255.96074
ADDUCT: [M]+
COLLISION_ENERGY: 70
INSTRUMENT_TYPE: GC-EI-Orbitrap
CHARGE: 1
PARENT_MASS: 255.96128857990922
NUM PEAKS: 2
255.96074	1.0	"Theoretical m/z 255.960786, Mass diff 0 (0.18 ppm), SMILES C=1C=C(C=CC=1C=2C=CC(=C(C=2)Cl)Cl)Cl, Annotation [C12H7Cl3]+, Rule of HR False"
257.95767	0.9839673176072516

COMPOUND_NAME: 4-Chlorobiphenyl
SCANNUMBER: -1
IONMODE: positive
SPECTRUMTYPE: Centroid
FORMULA: C12H9Cl
INCHIKEY: FPWNLURCHDRMHC-UHFFFAOYSA-N
SMILES: C1=CC=C(C=C1)C2=CC=C(C=C2)Cl
AUTHORS: Price et al., RECETOX, Masaryk University (CZ)
INSTRUMENT: Q Exactive GC Orbitrap GC-MS/MS
IONIZATION: EI+
LICENSE: CC BY-NC
RETENTION_TIME: 3.709946
RETENTION_INDEX: 1599.98
PRECURSOR_MZ: 188.03867
ADDUCT: [M]+
COLLISION_ENERGY: 70
INSTRUMENT_TYPE: GC-EI-Orbitrap
CHARGE: 1
PARENT_MASS: 188.03921857990923
NUM PEAKS: 2
188.03867	1.0	"Theoretical m/z 188.038728, Mass diff 0 (0.31 ppm), SMILES C1=CC=C(C=C1)C2=CC=C(C=C2)Cl, Annotation [C12H9Cl]+, Rule of HR False"
190.03558	0.32782949553614005

COMPOUND_NAME: Aminocarb
SCANNUMBER: -1
IONMODE: positive
SPECTRUMTYPE: Centroid
FORMULA: C11H16N2O2
INCHIKEY: IMIDOCRTMDIQIJ-UHFFFAOYSA-N
SMILES: CC1=C(C=CC(=C1)OC(=O)NC)N(C)C
AUTHORS: Price et al., RECETOX, Masaryk University (CZ)
INSTRUMENT: Q Exactive GC Orbitrap GC-MS/MS
IONIZATION: EI+
LICENSE: CC BY-NC
RETENTION_TIME: 4.2428
RETENTION_INDEX: 1743.2
PRECURSOR_MZ: 208.12054
ADDUCT: [M]+
COLLISION_ENERGY: 70
INSTRUMENT_TYPE: GC-EI-Orbitrap
CHARGE: 1
PARENT_MASS: 208.12108857990924
NUM PEAKS: 2
150.09131	0.6844697475260251	"Theoretical m/z 150.091343, Mass diff 0 (0.22 ppm), SMILES OC=1C=CC(=C(C=1)C)N(C)C, Annotation [C9H13NO-H]+, Rule of HR True"
151.09895	1.0

COMPOUND_NAME: Anthanthrene
SCANNUMBER: -1
IONMODE: positive
SPECTRUMTYPE: Centroid
FORMULA: C22H12
INCHIKEY: YFIJJNAKSZUOLT-UHFFFAOYSA-N
SMILES: C1=CC2=CC3=CC=C4C=CC=C5C=C6C=CC(=C1)C2=C6C3=C45
AUTHORS: Price et al., RECETOX, Masaryk University (CZ)
INSTRUMENT: Q Exactive GC Orbitrap GC-MS/MS
IONIZATION: EI+
LICENSE: CC BY-NC
RETENTION_TIME: 8.1353
RETENTION_INDEX: 3283.5
PRECURSOR_MZ: 276.09341
ADDUCT: [M]+
COLLISION_ENERGY: 70
INSTRUMENT_TYPE: GC-EI-Orbitrap
CHARGE: 1
PARENT_MASS: 276.09395857990927
NUM PEAKS: 2
276.09341	1.0	"Theoretical m/z 276.093354, Mass diff 0 (0.2 ppm), SMILES C=1C=C2C=CC3=CC6=CC=CC5=CC=C4C=C(C=1)C2=C3C4=C56, Annotation [C22H12]+, Rule of HR False"
277.09665	0.24484183164295495

COMPOUND_NAME: Atrazine
SCANNUMBER: -1
IONMODE: positive
SPECTRUMTYPE: Centroid
FORMULA: C8H14ClN5
INCHIKEY: MXWJVTOOROXGIU-UHFFFAOYSA-N
SMILES: CCNC1=NC(=NC(=N1)Cl)NC(C)C
AUTHORS: Price et al., RECETOX, Masaryk University (CZ)
INSTRUMENT: Q Exactive GC Orbitrap GC-MS/MS
IONIZATION: EI+
LICENSE: CC BY-NC
RETENTION_TIME: 4.1964
RETENTION_INDEX: 1730.4
PRECURSOR_MZ: 215.0921
ADDUCT: [M]+
COLLISION_ENERGY: 70
INSTRUMENT_TYPE: GC-EI-Orbitrap
CHARGE: 1
PARENT_MASS: 215.09264857990922
NUM PEAKS: 2
200.06863	1.0
215.0921	0.3017271513101437

COMPOUND_NAME: Benzo(k)fluoranthene
SCANNUMBER: -1
IONMODE: positive
SPECTRUMTYPE: Centroid
FORMULA: C20H12
INCHIKEY: HAXBIWFMXWRORI-UHFFFAOYSA-N
SMILES: C1=CC2=CC3=C(C=C2C=C1)C1=C2C3=CC=CC2=CC=C1
AUTHORS: Price et al., RECETOX, Masaryk University (CZ)
INSTRUMENT: Q Exactive GC Orbitrap GC-MS/MS
IONIZATION: EI+
LICENSE: CC BY-NC
RETENTION_TIME: 7.1567
RETENTION_INDEX: 2777.2
PRECURSOR_MZ: 252.09329
ADDUCT: [M]+
COLLISION_ENERGY: 70
INSTRUMENT_TYPE: GC-EI-Orbitrap
CHARGE: 1
PARENT_MASS: 252.09383857990923
NUM PEAKS: 2
252.09329	1.0	"Theoretical m/z 252.093354, Mass diff 0 (0.25 ppm), SMILES C=1C=CC2=CC=3C=5C=CC=C4C=CC=C(C=3(C=C2(C=1)))C4=5, Annotation [C20H12]+, Rule of HR False"
253.09663	0.22118424891906946

COMPOUND_NAME: Benzyl salicylate
SCANNUMBER: -1
IONMODE: positive
SPECTRUMTYPE: Centroid
FORMULA: C14H12O3
INCHIKEY: ZCTQGTTXIYCGGC-UHFFFAOYSA-N
SMILES: C1=CC=C(C=C1)COC(=O)C2=CC=CC=C2O
AUTHORS: Price et al., RECETOX, Masaryk University (CZ)
INSTRUMENT: Q Exactive GC Orbitrap GC-MS/MS
IONIZATION: EI+
LICENSE: CC BY-NC
RETENTION_TIME: 4.7324
RETENTION_INDEX: 1882.4
PRECURSOR_MZ: 228.07799
ADDUCT: [M]+
COLLISION_ENERGY: 70
INSTRUMENT_TYPE: GC-EI-Orbitrap
CHARGE: 1
PARENT_MASS: 228.07853857990924
NUM PEAKS: 2
91.05424	1.0
92.0575	0.09179127827885432

COMPOUND_NAME: Bifenazate
SCANNUMBER: -1
IONMODE: positive
SPECTRUMTYPE: Centroid
FORMULA: C17H20N2O3
INCHIKEY: VHLKTXFWDRXILV-UHFFFAOYSA-N
SMILES: CC(C)OC(=O)NNC1=C(C=CC(=C1)C2=CC=CC=C2)OC
AUTHORS: Price et al., RECETOX, Masaryk University (CZ)
INSTRUMENT: Q Exactive GC Orbitrap GC-MS/MS
IONIZATION: EI+
LICENSE: CC BY-NC
RETENTION_TIME: 6.4308
RETENTION_INDEX: 2450.2
PRECURSOR_MZ: 300.14673
ADDUCT: [M]+
COLLISION_ENERGY: 70
INSTRUMENT_TYPE: GC-EI-Orbitrap
CHARGE: 1
PARENT_MASS: 300.14727857990925
NUM PEAKS: 2
258.09982	0.8832776726838785
300.14673	0.5522147280535198	"Theoretical m/z 300.146851, Mass diff 0 (0.4 ppm), SMILES O=C(OC(C)C)NNC=1C=C(C=CC=1(OC))C2=CC=CC=C2, Annotation [C17H20N2O3]+, Rule of HR False"

COMPOUND_NAME: Boscalid
SCANNUMBER: -1
IONMODE: positive
SPECTRUMTYPE: Centroid
FORMULA: C18H12Cl2N2O
INCHIKEY: WYEMLYFITZORAB-UHFFFAOYSA-N
SMILES: C1=CC=C(C(=C1)C2=CC=C(C=C2)Cl)NC(=O)C3=C(N=CC=C3)Cl
AUTHORS: Price et al., RECETOX, Masaryk University (CZ)
INSTRUMENT: Q Exactive GC Orbitrap GC-MS/MS
IONIZATION: EI+
LICENSE: CC BY-NC
RETENTION_TIME: 7.2574
RETENTION_INDEX: 2830.2
PRECURSOR_MZ: 342.03207
ADDUCT: [M]+
COLLISION_ENERGY: 70
INSTRUMENT_TYPE: GC-EI-Orbitrap
CHARGE: 1
PARENT_MASS: 342.03261857990924
NUM PEAKS: 2
342.03207	0.4581508119249985	"Theoretical m/z 342.032105, Mass diff 0 (0.1 ppm), SMILES O=C(NC2=CC=CC=C2(C1=CC=C(C=C1)Cl))C=3C=CC=NC=3Cl, Annotation [C18H12Cl2N2O]+, Rule of HR False"
344.02899	0.2984238654054973

COMPOUND_NAME: Buprofezin
SCANNUMBER: -1
IONMODE: positive
SPECTRUMTYPE: Centroid
FORMULA: C16H23N3OS
INCHIKEY: PRLVTUNWOQKEAI-UHFFFAOYSA-N
SMILES: CC(C)N1C(=NC(C)(C)C)SCN(C1=O)C2=CC=CC=C2
AUTHORS: Price et al., RECETOX, Masaryk University (CZ)
INSTRUMENT: Q Exactive GC Orbitrap GC-MS/MS
IONIZATION: EI+
LICENSE: CC BY-NC
RETENTION_TIME: 5.7358
RETENTION_INDEX: 2197.8
PRECURSOR_MZ: 305.15527
ADDUCT: [M]+
COLLISION_ENERGY: 70
INSTRUMENT_TYPE: GC-EI-Orbitrap
CHARGE: 1
PARENT_MASS: 305.15581857990924
NUM PEAKS: 2
248.09746	0.14830866786317864
249.10548	0.2649070487447703	"Theoretical m/z 249.10561, Mass diff 0 (0.52 ppm), SMILES O=CN(C1=CC=CC=C1)CSC=NC(C)(C)C, Annotation [C13H18N2OS-H]+, Rule of HR True"

COMPOUND_NAME: Cinnamyl alcohol
SCANNUMBER: -1
IONMODE: positive
SPECTRUMTYPE: Centroid
FORMULA: C9H10O
INCHIKEY: OOCCDEMITAIZTP-QPJJXVBHSA-N
SMILES: C1=CC=C(C=C1)/C=C/CO
AUTHORS: Price et al., RECETOX, Masaryk University (CZ)
INSTRUMENT: Q Exactive GC Orbitrap GC-MS/MS
IONIZATION: EI+
LICENSE: CC BY-NC
RETENTION_TIME: 2.7216
RETENTION_INDEX: 1309.5
PRECURSOR_MZ: 134.07257
ADDUCT: [M]+
COLLISION_ENERGY: 70
INSTRUMENT_TYPE: GC-EI-Orbitrap
CHARGE: 1
PARENT_MASS: 134.07311857990925
NUM PEAKS: 2
91.05424	0.8024733194728155
92.06203	1.0

COMPOUND_NAME: Cyproconazole_isomer1
SCANNUMBER: -1
IONMODE: positive
SPECTRUMTYPE: Centroid
FORMULA: C15H18ClN3O
INCHIKEY: UFNOUKDBUJZYDE-UHFFFAOYSA-N
SMILES: CC(C1CC1)C(CN2C=NC=N2)(C3=CC=C(C=C3)Cl)O
AUTHORS: Price et al., RECETOX, Masaryk University (CZ)
INSTRUMENT: Q Exactive GC Orbitrap GC-MS/MS
IONIZATION: EI+
LICENSE: CC BY-NC
RETENTION_TIME: 5.8452
RETENTION_INDEX: 2235.3
PRECURSOR_MZ: 263.14297
ADDUCT: [M]+
COLLISION_ENERGY: 70
INSTRUMENT_TYPE: GC-EI-Orbitrap
CHARGE: 1
PARENT_MASS: 263.14351857990926
NUM PEAKS: 2
222.04279	1.0	"Theoretical m/z 222.042865, Mass diff 0 (0.34 ppm), SMILES OC(C1=CC=C(C=C1)Cl)CN2N=CN=C2, Annotation [C10H10ClN3O-H]+, Rule of HR True"
224.03973	0.3169205779549905

COMPOUND_NAME: Decachlorobiphenyl
SCANNUMBER: -1
IONMODE: positive
SPECTRUMTYPE: Centroid
FORMULA: C12Cl10
INCHIKEY: ONXPZLFXDMAPRO-UHFFFAOYSA-N
SMILES: ClC1=C(Cl)C(Cl)=C(C(Cl)=C1Cl)C1=C(Cl)C(Cl)=C(Cl)C(Cl)=C1Cl
AUTHORS: Price et al., RECETOX, Masaryk University (CZ)
INSTRUMENT: Q Exactive GC Orbitrap GC-MS/MS
IONIZATION: EI+
LICENSE: CC BY-NC
RETENTION_TIME: 7.396228
RETENTION_INDEX: 2914.57
PRECURSOR_MZ: 493.68796
ADDUCT: [M]+
COLLISION_ENERGY: 70
INSTRUMENT_TYPE: GC-EI-Orbitrap
CHARGE: 1
PARENT_MASS: 493.68850857990924
NUM PEAKS: 2
497.68207	1.0
499.67905	0.8513728724805811

COMPOUND_NAME: Diazinone
SCANNUMBER: -1
IONMODE: positive
SPECTRUMTYPE: Centroid
FORMULA: C12H21N2O3PS
INCHIKEY: FHIVAFMUCKRCQO-UHFFFAOYSA-N
SMILES: CCOP(=S)(OCC)OC1=NC(=NC(=C1)C)C(C)C
AUTHORS: Price et al., RECETOX, Masaryk University (CZ)
INSTRUMENT: Q Exactive GC Orbitrap GC-MS/MS
IONIZATION: EI+
LICENSE: CC BY-NC
RETENTION_TIME: 4.4141
RETENTION_INDEX: 1791.0
PRECURSOR_MZ: 304.09879
ADDUCT: [M]+
COLLISION_ENERGY: 70
INSTRUMENT_TYPE: GC-EI-Orbitrap
CHARGE: 1
PARENT_MASS: 304.0993385799093
NUM PEAKS: 2
276.06769	0.1971546183059081
304.09879	0.1851002668459848

COMPOUND_NAME: Dibutyl phthalate
SCANNUMBER: -1
IONMODE: positive
SPECTRUMTYPE: Centroid
FORMULA: C16H22O4
INCHIKEY: DOIRQSBPFJWKBE-UHFFFAOYSA-N
SMILES: CCCCOC(=O)C1=CC=CC=C1C(=O)OCCCC
AUTHORS: Price et al., RECETOX, Masaryk University (CZ)
INSTRUMENT: Q Exactive GC Orbitrap GC-MS/MS
IONIZATION: EI+
LICENSE: CC BY-NC
RETENTION_TIME: 4.987
RETENTION_INDEX: 1958.3
PRECURSOR_MZ: 233.15347
ADDUCT: [M]+
COLLISION_ENERGY: 70
INSTRUMENT_TYPE: GC-EI-Orbitrap
CHARGE: 1
PARENT_MASS: 233.15401857990923
NUM PEAKS: 2
149.02318	1.0	"Theoretical m/z 149.023319, Mass diff 0 (0.93 ppm), SMILES O=CC1=CC=CC=C1(C(=O)O), Annotation [C8H6O3-H]+, Rule of HR True"
150.0264	0.08880561819452668

COMPOUND_NAME: Dicrotophos
SCANNUMBER: -1
IONMODE: positive
SPECTRUMTYPE: Centroid
FORMULA: C8H16NO5P
INCHIKEY: VEENJGZXVHKXNB-VOTSOKGWSA-N
SMILES: CC(=CC(=O)N(C)C)OP(=O)(OC)OC
AUTHORS: Price et al., RECETOX, Masaryk University (CZ)
INSTRUMENT: Q Exactive GC Orbitrap GC-MS/MS
IONIZATION: EI+
LICENSE: CC BY-NC
RETENTION_TIME: 3.9222
RETENTION_INDEX: 1656.1
PRECURSOR_MZ: 237.07594
ADDUCT: [M]+
COLLISION_ENERGY: 70
INSTRUMENT_TYPE: GC-EI-Orbitrap
CHARGE: 1
PARENT_MASS: 237.07648857990924
NUM PEAKS: 2
85.10114	0.09299316791231242
127.01538	1.0

COMPOUND_NAME: Diniconazole
SCANNUMBER: -1
IONMODE: positive
SPECTRUMTYPE: Centroid
FORMULA: C15H17Cl2N3O
INCHIKEY: FBOUIAKEJMZPQG-MLPAPPSSSA-N
SMILES: CC(C)(C)C(C(=CC1=C(C=C(C=C1)Cl)Cl)N2C=NC=N2)O
AUTHORS: Price et al., RECETOX, Masaryk University (CZ)
INSTRUMENT: Q Exactive GC Orbitrap GC-MS/MS
IONIZATION: EI+
LICENSE: CC BY-NC
RETENTION_TIME: 5.9267
RETENTION_INDEX: 2263.7
PRECURSOR_MZ: 310.05087
ADDUCT: [M]+
COLLISION_ENERGY: 70
INSTRUMENT_TYPE: GC-EI-Orbitrap
CHARGE: 1
PARENT_MASS: 310.05141857990924
NUM PEAKS: 2
268.00375	1.0	"Theoretical m/z 268.003894, Mass diff 0 (0.54 ppm), SMILES OCC(=CC=1C=CC(=CC=1Cl)Cl)N2N=CN=C2, Annotation [C11H9Cl2N3O-H]+, Rule of HR True"
270.00067	0.6459678544634345

COMPOUND_NAME: Endosulfan
SCANNUMBER: -1
IONMODE: positive
SPECTRUMTYPE: Centroid
FORMULA: C9H6Cl6O3S
INCHIKEY: RDYMFSUJUZBWLH-UHFFFAOYSA-N
SMILES: C1C2C(COS(=O)O1)C3(C(=C(C2(C3(Cl)Cl)Cl)Cl)Cl)Cl
AUTHORS: Price et al., RECETOX, Masaryk University (CZ)
INSTRUMENT: Q Exactive GC Orbitrap GC-MS/MS
IONIZATION: EI+
LICENSE: CC BY-NC
RETENTION_TIME: 5.2028
RETENTION_INDEX: 2024.5
PRECURSOR_MZ: 403.03317
ADDUCT: [M]+
COLLISION_ENERGY: 70
INSTRUMENT_TYPE: GC-EI-Orbitrap
CHARGE: 1
PARENT_MASS: 403.03371857990925
NUM PEAKS: 2
276.87183	0.617638872171401
306.88226	0.40145417067886374

COMPOUND_NAME: Estrone
SCANNUMBER: -1
IONMODE: positive
SPECTRUMTYPE: Centroid
FORMULA: C18H22O2
INCHIKEY: DNXHEGUUPJUMQT-CBZIJGRNSA-N
SMILES: CC12CCC3C(C1CCC2=O)CCC4=C3C=CC(=C4)O
AUTHORS: Price et al., RECETOX, Masaryk University (CZ)
INSTRUMENT: Q Exactive GC Orbitrap GC-MS/MS
IONIZATION: EI+
LICENSE: CC BY-NC
RETENTION_TIME: 7.0117
RETENTION_INDEX: 2701.2
PRECURSOR_MZ: 270.1616
ADDUCT: [M]+
COLLISION_ENERGY: 70
INSTRUMENT_TYPE: GC-EI-Orbitrap
CHARGE: 1
PARENT_MASS: 270.1621485799093
NUM PEAKS: 2
270.16156	1.0	"Theoretical m/z 270.161439, Mass diff 0 (0.45 ppm), SMILES O=C2CCC3C4CCC=1C=C(O)C=CC=1C4(CCC23(C)), Annotation [C18H22O2]+, Rule of HR False"
271.16489	0.19384257191268695

COMPOUND_NAME: Fenobucarb
SCANNUMBER: -1
IONMODE: positive
SPECTRUMTYPE: Centroid
FORMULA: C12H17NO2
INCHIKEY: DIRFUJHNVNOBMY-UHFFFAOYSA-N
SMILES: CCC(C)C1=CC=CC=C1OC(=O)NC
AUTHORS: Price et al., RECETOX, Masaryk University (CZ)
INSTRUMENT: Q Exactive GC Orbitrap GC-MS/MS
IONIZATION: EI+
LICENSE: CC BY-NC
RETENTION_TIME: 3.6678
RETENTION_INDEX: 1582.0
PRECURSOR_MZ: 176.0831
ADDUCT: [M]+
COLLISION_ENERGY: 70
INSTRUMENT_TYPE: GC-EI-Orbitrap
CHARGE: 1
PARENT_MASS: 176.08364857990924
NUM PEAKS: 2
121.06467	1.0
150.10379	0.1583076499470051

COMPOUND_NAME: Flufenacet
SCANNUMBER: -1
IONMODE: positive
SPECTRUMTYPE: Centroid
FORMULA: C14H13F4N3O2S
INCHIKEY: IANUJLZYFUDJIH-UHFFFAOYSA-N
SMILES: CC(C)N(C1=CC=C(C=C1)F)C(=O)COC2=NN=C(S2)C(F)(F)F
AUTHORS: Price et al., RECETOX, Masaryk University (CZ)
INSTRUMENT: Q Exactive GC Orbitrap GC-MS/MS
IONIZATION: EI+
LICENSE: CC BY-NC
RETENTION_TIME: 5.0708
RETENTION_INDEX: 1983.7
PRECURSOR_MZ: 363.06549
ADDUCT: [M]+
COLLISION_ENERGY: 70
INSTRUMENT_TYPE: GC-EI-Orbitrap
CHARGE: 1
PARENT_MASS: 363.0660385799093
NUM PEAKS: 2
151.07902	1.0
210.97816	0.821920115242568	"Theoretical m/z 210.978366, Mass diff 0 (0.98 ppm), SMILES O=CCOC1=NN=C(C(F)(F)F)S1, Annotation [C5H3F3N2O2S-H]+, Rule of HR True"

COMPOUND_NAME: Fluoranthene
SCANNUMBER: -1
IONMODE: positive
SPECTRUMTYPE: Centroid
FORMULA: C16H10
INCHIKEY: GVEPBJHOBDJJJI-UHFFFAOYSA-N
SMILES: C1=CC2=C(C=C1)C1=C3C2=CC=CC3=CC=C1
AUTHORS: Price et al., RECETOX, Masaryk University (CZ)
INSTRUMENT: Q Exactive GC Orbitrap GC-MS/MS
IONIZATION: EI+
LICENSE: CC BY-NC
RETENTION_TIME: 5.4489
RETENTION_INDEX: 2102.7
PRECURSOR_MZ: 202.07756
ADDUCT: [M]+
COLLISION_ENERGY: 70
INSTRUMENT_TYPE: GC-EI-Orbitrap
CHARGE: 1
PARENT_MASS: 202.07810857990924
NUM PEAKS: 2
200.06207	0.24171329687810797
202.07756	1.0	"Theoretical m/z 202.077698, Mass diff 0 (0.69 ppm), SMILES C=1C=CC2=C(C=1)C4=CC=CC3=CC=CC2=C34, Annotation [C16H10]+, Rule of HR False"

COMPOUND_NAME: Flusilazole
SCANNUMBER: -1
IONMODE: positive
SPECTRUMTYPE: Centroid
FORMULA: C16H15F2N3Si
INCHIKEY: FQKUGOMFVDPBIZ-UHFFFAOYSA-N
SMILES: C[Si](CN1C=NC=N1)(C2=CC=C(C=C2)F)C3=CC=C(C=C3)F
AUTHORS: Price et al., RECETOX, Masaryk University (CZ)
INSTRUMENT: Q Exactive GC Orbitrap GC-MS/MS
IONIZATION: EI+
LICENSE: CC BY-NC
RETENTION_TIME: 5.7564
RETENTION_INDEX: 2204.8
PRECURSOR_MZ: 315.10016
ADDUCT: [M]+
COLLISION_ENERGY: 70
INSTRUMENT_TYPE: GC-EI-Orbitrap
CHARGE: 1
PARENT_MASS: 315.1007085799093
NUM PEAKS: 2
233.05914	1.0	"Theoretical m/z 233.059253, Mass diff 0 (0.49 ppm), SMILES FC1=CC=C(C=C1)[Si](C2=CC=C(F)C=C2)C, Annotation [C13H12F2Si-H]+, Rule of HR True"
314.09168	0.08077276255641436	"Theoretical m/z 314.092505, Mass diff 0 (0 ppm), Formula C16H14F2N3Si"

COMPOUND_NAME: Flutolanil
SCANNUMBER: -1
IONMODE: positive
SPECTRUMTYPE: Centroid
FORMULA: C17H16F3NO2
INCHIKEY: PTCGDEVVHUXTMP-UHFFFAOYSA-N
SMILES: CC(C)OC1=CC=CC(=C1)NC(=O)C2=CC=CC=C2C(F)(F)F
AUTHORS: Price et al., RECETOX, Masaryk University (CZ)
INSTRUMENT: Q Exactive GC Orbitrap GC-MS/MS
IONIZATION: EI+
LICENSE: CC BY-NC
RETENTION_TIME: 5.5327
RETENTION_INDEX: 2130.0
PRECURSOR_MZ: 323.11285
ADDUCT: [M]+
COLLISION_ENERGY: 70
INSTRUMENT_TYPE: GC-EI-Orbitrap
CHARGE: 1
PARENT_MASS: 323.11339857990924
NUM PEAKS: 2
281.06586	0.2876708496906697
323.11285	0.10837618494695	"Theoretical m/z 323.112763, Mass diff 0 (0.27 ppm), SMILES O=C(NC=1C=CC=C(OC(C)C)C=1)C2=CC=CC=C2C(F)(F)F, Annotation [C17H16F3NO2]+, Rule of HR False"

COMPOUND_NAME: Hexabromobenzene
SCANNUMBER: -1
IONMODE: positive
SPECTRUMTYPE: Centroid
FORMULA: C6Br6
INCHIKEY: CAYGQBVSOZLICD-UHFFFAOYSA-N
SMILES: C1(=C(C(=C(C(=C1Br)Br)Br)Br)Br)Br
AUTHORS: Price et al., RECETOX, Masaryk University (CZ)
INSTRUMENT: Q Exactive GC Orbitrap GC-MS/MS
IONIZATION: EI+
LICENSE: CC BY-NC
RETENTION_TIME: 6.4946
RETENTION_INDEX: 2475.3
PRECURSOR_MZ: 551.5015
ADDUCT: [M]+
COLLISION_ENERGY: 70
INSTRUMENT_TYPE: GC-EI-Orbitrap
CHARGE: 1
PARENT_MASS: 551.5020485799092
NUM PEAKS: 2
549.50366	0.7711900693762828
551.50153	1.0

COMPOUND_NAME: Ipconazole
SCANNUMBER: -1
IONMODE: positive
SPECTRUMTYPE: Centroid
FORMULA: C18H24ClN3O
INCHIKEY: QTYCMDBMOLSEAM-UHFFFAOYSA-N
SMILES: CC(C)C1CCC(C1(CN2C=NC=N2)O)CC3=CC=C(C=C3)Cl
AUTHORS: Price et al., RECETOX, Masaryk University (CZ)
INSTRUMENT: Q Exactive GC Orbitrap GC-MS/MS
IONIZATION: EI+
LICENSE: CC BY-NC
RETENTION_TIME: 6.7834
RETENTION_INDEX: 2595.0
PRECURSOR_MZ: 333.15979
ADDUCT: [M]+
COLLISION_ENERGY: 70
INSTRUMENT_TYPE: GC-EI-Orbitrap
CHARGE: 1
PARENT_MASS: 333.16033857990925
NUM PEAKS: 2
249.1039	0.17779292602810756	"Theoretical m/z 249.104074, Mass diff 0 (0.7 ppm), SMILES OC2(C)(C(CC1=CC=C(C=C1)Cl)CCC2(CC)), Annotation [C15H21ClO-3H]+, Rule of HR True"
272.09467	0.0723230475252887	"Theoretical m/z 272.094903, Mass diff 0 (0.86 ppm), SMILES N=1C=NN(C=1)CC3CCCC3(CC2=CC=C(C=C2)Cl), Annotation [C15H18ClN3-3H]+, Rule of HR True"

COMPOUND_NAME: Iprovalicarb isomer 1
SCANNUMBER: -1
IONMODE: positive
SPECTRUMTYPE: Centroid
FORMULA: C18H28N2O3
INCHIKEY: NWUWYYSKZYIQAE-WMCAAGNKSA-N
SMILES: CC1=CC=C(C=C1)C(C)NC(=O)C(C(C)C)NC(=O)OC(C)C
AUTHORS: Price et al., RECETOX, Masaryk University (CZ)
INSTRUMENT: Q Exactive GC Orbitrap GC-MS/MS
IONIZATION: EI+
LICENSE: CC BY-NC
RETENTION_TIME: 5.6483
RETENTION_INDEX: 2168.3
PRECURSOR_MZ: 320.98038
ADDUCT: [M]+
COLLISION_ENERGY: 70
INSTRUMENT_TYPE: GC-EI-Orbitrap
CHARGE: 1
PARENT_MASS: 320.9809285799093
NUM PEAKS: 2
134.09634	1.0	"Theoretical m/z 134.096424, Mass diff 0 (0.62 ppm), SMILES NC(C1=CC=C(C=C1)C)C, Annotation [C9H13N-H]+, Rule of HR True"
158.11757	0.09939378781567902	"Theoretical m/z 158.117557, Mass diff 0 (0.08 ppm), SMILES O=C(OC(C)C)NCC(C)C, Annotation [C8H17NO2-H]+, Rule of HR True"

COMPOUND_NAME: Isomethyl-alpha-ionone
SCANNUMBER: -1
IONMODE: positive
SPECTRUMTYPE: Centroid
FORMULA: C14H22O
INCHIKEY: JRJBVWJSTHECJK-LUAWRHEFSA-N
SMILES: CC1=CCCC(C1/C=C(/C)\C(=O)C)(C)C
AUTHORS: Price et al., RECETOX, Masaryk University (CZ)
INSTRUMENT: Q Exactive GC Orbitrap GC-MS/MS
IONIZATION: EI+
LICENSE: CC BY-NC
RETENTION_TIME: 3.3313
RETENTION_INDEX: 1479.9
PRECURSOR_MZ: 206.1664
ADDUCT: [M]+
COLLISION_ENERGY: 70
INSTRUMENT_TYPE: GC-EI-Orbitrap
CHARGE: 1
PARENT_MASS: 206.16694857990925
NUM PEAKS: 2
150.10378	0.1850430251355921
191.14285	0.09320143859270466	"Theoretical m/z 191.143039, Mass diff 0 (0.99 ppm), SMILES O=C(C=CC1C(=CCCC1(C)(C))C)C, Annotation [C13H20O-H]+, Rule of HR True"

COMPOUND_NAME: Metalaxyl
SCANNUMBER: -1
IONMODE: positive
SPECTRUMTYPE: Centroid
FORMULA: C15H21NO4
INCHIKEY: ZQEIXNIJLIKNTD-UHFFFAOYSA-N
SMILES: CC1=C(C(=CC=C1)C)N(C(C)C(=O)OC)C(=O)COC
AUTHORS: Price et al., RECETOX, Masaryk University (CZ)
INSTRUMENT: Q Exactive GC Orbitrap GC-MS/MS
IONIZATION: EI+
LICENSE: CC BY-NC
RETENTION_TIME: 4.8152
RETENTION_INDEX: 1906.8
PRECURSOR_MZ: 279.14627
ADDUCT: [M]+
COLLISION_ENERGY: 70
INSTRUMENT_TYPE: GC-EI-Orbitrap
CHARGE: 1
PARENT_MASS: 279.1468185799093
NUM PEAKS: 2
206.11742	0.7667202191420339	"Theoretical m/z 206.117557, Mass diff 0 (0.67 ppm), SMILES O=C(OC)C(NC1=C(C=CC=C1C)C)C, Annotation [C12H17NO2-H]+, Rule of HR True"
234.11226	0.25004603152594124	"Theoretical m/z 234.112476, Mass diff 0 (0.92 ppm), SMILES O=CN(C1=C(C=CC=C1C)C)C(C(=O)OC)C, Annotation [C13H17NO3-H]+, Rule of HR True"

COMPOUND_NAME: Methabenzthiazuron
SCANNUMBER: -1
IONMODE: positive
SPECTRUMTYPE: Centroid
FORMULA: C10H11N3OS
INCHIKEY: RRVIAQKBTUQODI-UHFFFAOYSA-N
SMILES: CNC(=O)N(C)C1=NC2=CC=CC=C2S1
AUTHORS: Price et al., RECETOX, Masaryk University (CZ)
INSTRUMENT: Q Exactive GC Orbitrap GC-MS/MS
IONIZATION: EI+
LICENSE: CC BY-NC
RETENTION_TIME: 3.893
RETENTION_INDEX: 1648.3
PRECURSOR_MZ: 164.0401
ADDUCT: [M]+
COLLISION_ENERGY: 70
INSTRUMENT_TYPE: GC-EI-Orbitrap
CHARGE: 1
PARENT_MASS: 164.04064857990923
NUM PEAKS: 2
163.03238	0.2244470732742383	"Theoretical m/z 163.032444, Mass diff 0 (0.39 ppm), SMILES N=2C1=CC=CC=C1SC=2NC, Annotation [C8H8N2S-H]+, Rule of HR True"
164.0401	0.6645773147665036

COMPOUND_NAME: Methoxychlor
SCANNUMBER: -1
IONMODE: positive
SPECTRUMTYPE: Centroid
FORMULA: C16H15Cl3O2
INCHIKEY: IAKOZHOLGAGEJT-UHFFFAOYSA-N
SMILES: COC1=CC=C(C=C1)C(C2=CC=C(C=C2)OC)C(Cl)(Cl)Cl
AUTHORS: Price et al., RECETOX, Masaryk University (CZ)
INSTRUMENT: Q Exactive GC Orbitrap GC-MS/MS
IONIZATION: EI+
LICENSE: CC BY-NC
RETENTION_TIME: 6.4956
RETENTION_INDEX: 2475.7
PRECURSOR_MZ: 312.0289
ADDUCT: [M]+
COLLISION_ENERGY: 70
INSTRUMENT_TYPE: GC-EI-Orbitrap
CHARGE: 1
PARENT_MASS: 312.0294485799093
NUM PEAKS: 2
227.10552	1.0
228.10883	0.16095153519877717

COMPOUND_NAME: Metobromuron
SCANNUMBER: -1
IONMODE: positive
SPECTRUMTYPE: Centroid
FORMULA: C9H11BrN2O2
INCHIKEY: WLFDQEVORAMCIM-UHFFFAOYSA-N
SMILES: CN(C(=O)NC1=CC=C(C=C1)Br)OC
AUTHORS: Price et al., RECETOX, Masaryk University (CZ)
INSTRUMENT: Q Exactive GC Orbitrap GC-MS/MS
IONIZATION: EI+
LICENSE: CC BY-NC
RETENTION_TIME: 4.5998
RETENTION_INDEX: 1843.9
PRECURSOR_MZ: 257.99976
ADDUCT: [M]+
COLLISION_ENERGY: 70
INSTRUMENT_TYPE: GC-EI-Orbitrap
CHARGE: 1
PARENT_MASS: 258.00030857990924
NUM PEAKS: 2
257.99976	0.8012772632910602	"Theoretical m/z 257.999848, Mass diff 0 (0.34 ppm), SMILES O=C(NC1=CC=C(C=C1)Br)N(OC)C, Annotation [C9H11BrN2O2]+, Rule of HR False"
259.99765	0.785952286253879

COMPOUND_NAME: Octachlorodibenzo-p-dioxin
SCANNUMBER: -1
IONMODE: positive
SPECTRUMTYPE: Centroid
FORMULA: C12Cl8O2
INCHIKEY: FOIBFBMSLDGNHL-UHFFFAOYSA-N
SMILES: C12=C(C(=C(C(=C1Cl)Cl)Cl)Cl)OC3=C(O2)C(=C(C(=C3Cl)Cl)Cl)Cl
AUTHORS: Price et al., RECETOX, Masaryk University (CZ)
INSTRUMENT: Q Exactive GC Orbitrap GC-MS/MS
IONIZATION: EI+
LICENSE: CC BY-NC
RETENTION_TIME: 7.77
RETENTION_INDEX: 3097.6
PRECURSOR_MZ: 459.731994628906
ADDUCT: [M]+
COLLISION_ENERGY: 70
INSTRUMENT_TYPE: GC-EI-Orbitrap
CHARGE: 1
PARENT_MASS: 459.7325432088153
NUM PEAKS: 2
457.73502	0.8822893045629522
459.73202	1.0

COMPOUND_NAME: Penconazole
SCANNUMBER: -1
IONMODE: positive
SPECTRUMTYPE: Centroid
FORMULA: C13H15Cl2N3
INCHIKEY: WKBPZYKAUNRMKP-UHFFFAOYSA-N
SMILES: CCCC(CN1C=NC=N1)C2=C(C=C(C=C2)Cl)Cl
AUTHORS: Price et al., RECETOX, Masaryk University (CZ)
INSTRUMENT: Q Exactive GC Orbitrap GC-MS/MS
IONIZATION: EI+
LICENSE: CC BY-NC
RETENTION_TIME: 5.245
RETENTION_INDEX: 2037.7
PRECURSOR_MZ: 281.05112
ADDUCT: [M]+
COLLISION_ENERGY: 70
INSTRUMENT_TYPE: GC-EI-Orbitrap
CHARGE: 1
PARENT_MASS: 281.0516685799093
NUM PEAKS: 2
248.09474	1.0	"Theoretical m/z 248.094898, Mass diff 0 (0.64 ppm), SMILES N=1C=NN(C=1)CC(C=2C=CC=CC=2Cl)CCC, Annotation [C13H16ClN3-H]+, Rule of HR True"
250.09166	0.3194876821392374

COMPOUND_NAME: Pendimethalin
SCANNUMBER: -1
IONMODE: positive
SPECTRUMTYPE: Centroid
FORMULA: C13H19N3O4
INCHIKEY: CHIFOSRWCNZCFN-UHFFFAOYSA-N
SMILES: CCC(CC)NC1=C(C=C(C(=C1[N+](=O)[O-])C)C)[N+](=O)[O-]
AUTHORS: Price et al., RECETOX, Masaryk University (CZ)
INSTRUMENT: Q Exactive GC Orbitrap GC-MS/MS
IONIZATION: EI+
LICENSE: CC BY-NC
RETENTION_TIME: 5.2669
RETENTION_INDEX: 2044.6
PRECURSOR_MZ: 281.13574
ADDUCT: [M]+
COLLISION_ENERGY: 70
INSTRUMENT_TYPE: GC-EI-Orbitrap
CHARGE: 1
PARENT_MASS: 281.13628857990926
NUM PEAKS: 2
252.09671	1.0
253.10007	0.1276237615176009

COMPOUND_NAME: Perylene
SCANNUMBER: -1
IONMODE: positive
SPECTRUMTYPE: Centroid
FORMULA: C20H12
INCHIKEY: CSHWQDPOILHKBI-UHFFFAOYSA-N
SMILES: C1=CC2=C3C(=C1)C1=CC=CC4=C1C(=CC=C4)C3=CC=C2
AUTHORS: Price et al., RECETOX, Masaryk University (CZ)
INSTRUMENT: Q Exactive GC Orbitrap GC-MS/MS
IONIZATION: EI+
LICENSE: CC BY-NC
RETENTION_TIME: 7.3654
RETENTION_INDEX: 2886.9
PRECURSOR_MZ: 252.09323
ADDUCT: [M]+
COLLISION_ENERGY: 70
INSTRUMENT_TYPE: GC-EI-Orbitrap
CHARGE: 1
PARENT_MASS: 252.09377857990924
NUM PEAKS: 2
250.07765	0.3282529462971431
252.09323	1.0	"Theoretical m/z 252.093354, Mass diff 0 (0.49 ppm), SMILES C1=CC=2C=CC=C3C5=CC=CC=4C=CC=C(C(=C1)C=23)C=45, Annotation [C20H12]+, Rule of HR False"

COMPOUND_NAME: Phantolide
SCANNUMBER: -1
IONMODE: positive
SPECTRUMTYPE: Centroid
FORMULA: C17H24O
INCHIKEY: VDBHOHJWUDKDRW-UHFFFAOYSA-N
SMILES: CC1C(C2=C(C1(C)C)C=C(C(=C2)C)C(=O)C)(C)C
AUTHORS: Price et al., RECETOX, Masaryk University (CZ)
INSTRUMENT: Q Exactive GC Orbitrap GC-MS/MS
IONIZATION: EI+
LICENSE: CC BY-NC
RETENTION_TIME: 4.2218
RETENTION_INDEX: 1737.4
PRECURSOR_MZ: 244.18102
ADDUCT: [M]+
COLLISION_ENERGY: 70
INSTRUMENT_TYPE: GC-EI-Orbitrap
CHARGE: 1
PARENT_MASS: 244.18156857990923
NUM PEAKS: 2
229.15759	1.0
244.18102	0.1301659539730184	"Theoretical m/z 244.18216, Mass diff 0.001 (4.67 ppm), SMILES O=C(C1=CC2=C(C=C1C)C(C)(C)C(C)C2(C)C)C, Annotation [C17H24O]+, Rule of HR False"

COMPOUND_NAME: Prometon
SCANNUMBER: -1
IONMODE: positive
SPECTRUMTYPE: Centroid
FORMULA: C10H19N5O
INCHIKEY: ISEUFVQQFVOBCY-UHFFFAOYSA-N
SMILES: CC(C)NC1=NC(=NC(=N1)OC)NC(C)C
AUTHORS: Price et al., RECETOX, Masaryk University (CZ)
INSTRUMENT: Q Exactive GC Orbitrap GC-MS/MS
IONIZATION: EI+
LICENSE: CC BY-NC
RETENTION_TIME: 4.0527
RETENTION_INDEX: 1691.2
PRECURSOR_MZ: 225.15822
ADDUCT: [M]+
COLLISION_ENERGY: 70
INSTRUMENT_TYPE: GC-EI-Orbitrap
CHARGE: 1
PARENT_MASS: 225.15876857990924
NUM PEAKS: 2
210.13475	0.8246280208045232	"Theoretical m/z 210.134937, Mass diff 0 (0.89 ppm), SMILES N1=C(N=C(N=C1NCC)NC(C)C)OC, Annotation [C9H17N5O-H]+, Rule of HR True"
225.15822	0.47390891964189963	"Theoretical m/z 225.158417, Mass diff 0 (0.88 ppm), SMILES N=1C(=NC(=NC=1NC(C)C)NC(C)C)OC, Annotation [C10H19N5O]+, Rule of HR False"

COMPOUND_NAME: Propargite_isomer1
SCANNUMBER: -1
IONMODE: positive
SPECTRUMTYPE: Centroid
FORMULA: C19H26O4S
INCHIKEY: ZYHMJXZULPZUED-UHFFFAOYSA-N
SMILES: CC(C)(C)C1=CC=C(C=C1)OC2CCCCC2OS(=O)OCC#C
AUTHORS: Price et al., RECETOX, Masaryk University (CZ)
INSTRUMENT: Q Exactive GC Orbitrap GC-MS/MS
IONIZATION: EI+
LICENSE: CC BY-NC
RETENTION_TIME: 6.3705
RETENTION_INDEX: 2426.8
PRECURSOR_MZ: 350.15448
ADDUCT: [M]+
COLLISION_ENERGY: 70
INSTRUMENT_TYPE: GC-EI-Orbitrap
CHARGE: 1
PARENT_MASS: 350.15502857990924
NUM PEAKS: 2
335.1308	0.05369684821887307	"Theoretical m/z 335.131158, Mass diff 0 (1.07 ppm), SMILES O=S(OCC#C)OC(COC1=CC=C(C=C1)C(C)(C)C)CCC, Annotation [C18H26O4S-3H]+, Rule of HR True"
350.15448	0.07590238404123571	"Theoretical m/z 350.154633, Mass diff 0 (0.44 ppm), SMILES O=S(OCC#C)OC2CCCCC2(OC1=CC=C(C=C1)C(C)(C)C), Annotation [C19H26O4S]+, Rule of HR False"

COMPOUND_NAME: Propoxur
SCANNUMBER: -1
IONMODE: positive
SPECTRUMTYPE: Centroid
FORMULA: C11H15NO3
INCHIKEY: ISRUGXGCCGIOQO-UHFFFAOYSA-N
SMILES: CC(C)OC1=CC=CC=C1OC(=O)NC
AUTHORS: Price et al., RECETOX, Masaryk University (CZ)
INSTRUMENT: Q Exactive GC Orbitrap GC-MS/MS
IONIZATION: EI+
LICENSE: CC BY-NC
RETENTION_TIME: 3.69
RETENTION_INDEX: 1588.6
PRECURSOR_MZ: 166.07762
ADDUCT: [M]+
COLLISION_ENERGY: 70
INSTRUMENT_TYPE: GC-EI-Orbitrap
CHARGE: 1
PARENT_MASS: 166.07816857990923
NUM PEAKS: 2
110.03617	1.0
152.08307	0.11632995188805319	"Theoretical m/z 152.083176, Mass diff 0 (0.7 ppm), SMILES OC1=CC=CC=C1(OC(C)C), Annotation [C9H12O2]+, Rule of HR False"

COMPOUND_NAME: Pyridaben
SCANNUMBER: -1
IONMODE: positive
SPECTRUMTYPE: Centroid
FORMULA: C19H25ClN2OS
INCHIKEY: DWFZBUWUXWZWKD-UHFFFAOYSA-N
SMILES: CC(C)(C)C1=CC=C(C=C1)CSC2=C(C(=O)N(N=C2)C(C)(C)C)Cl
AUTHORS: Price et al., RECETOX, Masaryk University (CZ)
INSTRUMENT: Q Exactive GC Orbitrap GC-MS/MS
IONIZATION: EI+
LICENSE: CC BY-NC
RETENTION_TIME: 7.0551
RETENTION_INDEX: 2723.8
PRECURSOR_MZ: 364.13681
ADDUCT: [M]+
COLLISION_ENERGY: 70
INSTRUMENT_TYPE: GC-EI-Orbitrap
CHARGE: 1
PARENT_MASS: 364.1373585799093
NUM PEAKS: 2
309.08221	0.15051707832170325	"Theoretical m/z 309.082289, Mass diff 0 (0.25 ppm), SMILES O=C1NN=CC(=C1Cl)SCC2=CC=C(C=C2)C(C)(C)C, Annotation [C15H17ClN2OS+H]+, Rule of HR True"
311.07904	0.05449782436620784

COMPOUND_NAME: Spiromesifen
SCANNUMBER: -1
IONMODE: positive
SPECTRUMTYPE: Centroid
FORMULA: C23H30O4
INCHIKEY: GOLXNESZZPUPJE-UHFFFAOYSA-N
SMILES: CC1=CC(=C(C(=C1)C)C2=C(C3(CCCC3)OC2=O)OC(=O)CC(C)(C)C)C
AUTHORS: Price et al., RECETOX, Masaryk University (CZ)
INSTRUMENT: Q Exactive GC Orbitrap GC-MS/MS
IONIZATION: EI+
LICENSE: CC BY-NC
RETENTION_TIME: 6.4464
RETENTION_INDEX: 2456.3
PRECURSOR_MZ: 370.2135
ADDUCT: [M]+
COLLISION_ENERGY: 70
INSTRUMENT_TYPE: GC-EI-Orbitrap
CHARGE: 1
PARENT_MASS: 370.2140485799093
NUM PEAKS: 2
254.12984	1.0
272.14035	0.897686065946504

COMPOUND_NAME: Spiroxamine_isomer1
SCANNUMBER: -1
IONMODE: positive
SPECTRUMTYPE: Centroid
FORMULA: C18H35NO2
INCHIKEY: PUYXTUJWRLOUCW-UHFFFAOYSA-N
SMILES: CCCN(CC)CC1COC2(O1)CCC(CC2)C(C)(C)C
AUTHORS: Price et al., RECETOX, Masaryk University (CZ)
INSTRUMENT: Q Exactive GC Orbitrap GC-MS/MS
IONIZATION: EI+
LICENSE: CC BY-NC
RETENTION_TIME: 4.6524
RETENTION_INDEX: 1859.1
PRECURSOR_MZ: 296.25861
ADDUCT: [M]+
COLLISION_ENERGY: 70
INSTRUMENT_TYPE: GC-EI-Orbitrap
CHARGE: 1
PARENT_MASS: 296.25915857990924
NUM PEAKS: 2
72.08073	0.2005624808874162
100.11201	1.0

COMPOUND_NAME: Terbumeton
SCANNUMBER: -1
IONMODE: positive
SPECTRUMTYPE: Centroid
FORMULA: C10H19N5O
INCHIKEY: BCQMBFHBDZVHKU-UHFFFAOYSA-N
SMILES: CCNC1=NC(=NC(=N1)OC)NC(C)(C)C
AUTHORS: Price et al., RECETOX, Masaryk University (CZ)
INSTRUMENT: Q Exactive GC Orbitrap GC-MS/MS
IONIZATION: EI+
LICENSE: CC BY-NC
RETENTION_TIME: 4.1621
RETENTION_INDEX: 1721.0
PRECURSOR_MZ: 225.15813
ADDUCT: [M]+
COLLISION_ENERGY: 70
INSTRUMENT_TYPE: GC-EI-Orbitrap
CHARGE: 1
PARENT_MASS: 225.15867857990924
NUM PEAKS: 2
169.09558	0.9703220582537293
210.13466	1.0	"Theoretical m/z 210.134937, Mass diff 0 (1.32 ppm), SMILES N1=C(N=C(N=C1NC)NC(C)(C)C)OC, Annotation [C9H17N5O-H]+, Rule of HR True"

COMPOUND_NAME: Terbutryn
SCANNUMBER: -1
IONMODE: positive
SPECTRUMTYPE: Centroid
FORMULA: C10H19N5S
INCHIKEY: IROINLKCQGIITA-UHFFFAOYSA-N
SMILES: CCNC1=NC(=NC(=N1)SC)NC(C)(C)C
AUTHORS: Price et al., RECETOX, Masaryk University (CZ)
INSTRUMENT: Q Exactive GC Orbitrap GC-MS/MS
IONIZATION: EI+
LICENSE: CC BY-NC
RETENTION_TIME: 4.8856
RETENTION_INDEX: 1927.7
PRECURSOR_MZ: 241.13538
ADDUCT: [M]+
COLLISION_ENERGY: 70
INSTRUMENT_TYPE: GC-EI-Orbitrap
CHARGE: 1
PARENT_MASS: 241.13592857990923
NUM PEAKS: 2
226.11195	0.8881858163814275	"Theoretical m/z 226.112095, Mass diff 0 (0.64 ppm), SMILES N1=C(N=C(N=C1NC(C)(C)C)S)NCC, Annotation [C9H17N5S-H]+, Rule of HR True"
241.13538	0.2142652585711491	"Theoretical m/z 241.13556, Mass diff 0 (0.75 ppm), SMILES N1=C(N=C(N=C1NC(C)(C)C)SC)NCC, Annotation [C10H19N5S]+, Rule of HR False"

COMPOUND_NAME: Transfluthrin
SCANNUMBER: -1
IONMODE: positive
SPECTRUMTYPE: Centroid
FORMULA: C15H12Cl2F4O2
INCHIKEY: DDVNRFNDOPPVQJ-HQJQHLMTSA-N
SMILES: CC1(C)[C@H](C=C(Cl)Cl)[C@H]1C(=O)OCC1=C(F)C(F)=CC(F)=C1F
AUTHORS: Price et al., RECETOX, Masaryk University (CZ)
INSTRUMENT: Q Exactive GC Orbitrap GC-MS/MS
IONIZATION: EI+
LICENSE: CC BY-NC
RETENTION_TIME: 4.8007
RETENTION_INDEX: 1902.5
PRECURSOR_MZ: 338.04614
ADDUCT: [M]+
COLLISION_ENERGY: 70
INSTRUMENT_TYPE: GC-EI-Orbitrap
CHARGE: 1
PARENT_MASS: 338.04668857990924
NUM PEAKS: 2
163.01645	1.0	"Theoretical m/z 163.016544, Mass diff 0 (0.58 ppm), SMILES FC1=CC(F)=C(F)C(=C1(F))C, Annotation [C7H4F4-H]+, Rule of HR True"
335.04565	0.08041699302385637	"Theoretical m/z 335.045642, Mass diff 0 (0.02 ppm), SMILES O=C(OCC1=C(F)C(F)=CC(F)=C1(F))C2C(C=CCl)C2(C)(C), Annotation [C15H13ClF4O2-H]+, Rule of HR True"

COMPOUND_NAME: Triadimefon
SCANNUMBER: -1
IONMODE: positive
SPECTRUMTYPE: Centroid
FORMULA: C14H16ClN3O2
INCHIKEY: WURBVZBTWMNKQT-UHFFFAOYSA-N
SMILES: CC(C)(C)C(=O)C(N1C=NC=N1)OC2=CC=C(C=C2)Cl
AUTHORS: Price et al., RECETOX, Masaryk University (CZ)
INSTRUMENT: Q Exactive GC Orbitrap GC-MS/MS
IONIZATION: EI+
LICENSE: CC BY-NC
RETENTION_TIME: 5.0845
RETENTION_INDEX: 1987.9
PRECURSOR_MZ: 293.09201
ADDUCT: [M]+
COLLISION_ENERGY: 70
INSTRUMENT_TYPE: GC-EI-Orbitrap
CHARGE: 1
PARENT_MASS: 293.0925585799093
NUM PEAKS: 2
208.02708	1.0	"Theoretical m/z 208.02721, Mass diff 0 (0.62 ppm), SMILES N=1C=NN(C=1)COC2=CC=C(C=C2)Cl, Annotation [C9H8ClN3O-H]+, Rule of HR True"
210.024	0.31747907151789084

COMPOUND_NAME: Triadimenol_isomer1
SCANNUMBER: -1
IONMODE: positive
SPECTRUMTYPE: Centroid
FORMULA: C14H18ClN3O2
INCHIKEY: BAZVSMNPJJMILC-UHFFFAOYSA-N
SMILES: CC(C)(C)C(C(N1C=NC=N1)OC2=CC=C(C=C2)Cl)O
AUTHORS: Price et al., RECETOX, Masaryk University (CZ)
INSTRUMENT: Q Exactive GC Orbitrap GC-MS/MS
IONIZATION: EI+
LICENSE: CC BY-NC
RETENTION_TIME: 5.3059
RETENTION_INDEX: 2056.9
PRECURSOR_MZ: 283.04742
ADDUCT: [M]+
COLLISION_ENERGY: 70
INSTRUMENT_TYPE: GC-EI-Orbitrap
CHARGE: 1
PARENT_MASS: 283.04796857990925
NUM PEAKS: 2
168.11305	0.7729992300809294	"Theoretical m/z 168.113132, Mass diff 0 (0.49 ppm), SMILES OC(CN1N=CN=C1)C(C)(C)C, Annotation [C8H15N3O-H]+, Rule of HR True"
208.02712	0.056436971888772114	"Theoretical m/z 208.02721, Mass diff 0 (0.43 ppm), SMILES N=1C=NN(C=1)COC2=CC=C(C=C2)Cl, Annotation [C9H8ClN3O-H]+, Rule of HR True"

COMPOUND_NAME: Tris(1,3-dichloro-2-propyl)phosphate
SCANNUMBER: -1
IONMODE: positive
SPECTRUMTYPE: Centroid
FORMULA: C9H15Cl6O4P
INCHIKEY: ASLWPAWFJZFCKF-UHFFFAOYSA-N
SMILES: C(C(CCl)OP(=O)(OC(CCl)CCl)OC(CCl)CCl)Cl
AUTHORS: Price et al., RECETOX, Masaryk University (CZ)
INSTRUMENT: Q Exactive GC Orbitrap GC-MS/MS
IONIZATION: EI+
LICENSE: CC BY-NC
RETENTION_TIME: 6.1353
RETENTION_INDEX: 2338.5
PRECURSOR_MZ: 396.90875
ADDUCT: [M]+
COLLISION_ENERGY: 70
INSTRUMENT_TYPE: GC-EI-Orbitrap
CHARGE: 1
PARENT_MASS: 396.90929857990926
NUM PEAKS: 2
380.89584	0.3534203589875926
382.89285	0.22660957158654366	"Theoretical m/z 382.8945, Mass diff 0.001 (0 ppm), Formula C8H13Cl6O4"

COMPOUND_NAME: Tris(2-ethylhexyl) phosphate
SCANNUMBER: -1
IONMODE: positive
SPECTRUMTYPE: Centroid
FORMULA: C24H51O4P
INCHIKEY: GTVWRXDRKAHEAD-UHFFFAOYSA-N
SMILES: CCCCC(CC)COP(=O)(OCC(CC)CCCC)OCC(CC)CCCC
AUTHORS: Price et al., RECETOX, Masaryk University (CZ)
INSTRUMENT: Q Exactive GC Orbitrap GC-MS/MS
IONIZATION: EI+
LICENSE: CC BY-NC
RETENTION_TIME: 6.4685
RETENTION_INDEX: 2465.0
PRECURSOR_MZ: 323.23441
ADDUCT: [M]+
COLLISION_ENERGY: 70
INSTRUMENT_TYPE: GC-EI-Orbitrap
CHARGE: 1
PARENT_MASS: 323.2349585799093
NUM PEAKS: 2
71.08555	0.06594958126712658
98.98419	1.0

COMPOUND_NAME: Tris(isopropylphenyl)phosphate
SCANNUMBER: -1
IONMODE: positive
SPECTRUMTYPE: Centroid
FORMULA: C27H33O4P
INCHIKEY: LIPMRGQQBZJCTM-UHFFFAOYSA-N
SMILES: CC(C)C1=CC=CC=C1OP(=O)(OC2=CC=CC=C2C(C)C)OC3=CC=CC=C3C(C)C
AUTHORS: Price et al., RECETOX, Masaryk University (CZ)
INSTRUMENT: Q Exactive GC Orbitrap GC-MS/MS
IONIZATION: EI+
LICENSE: CC BY-NC
RETENTION_TIME: 7.2287
RETENTION_INDEX: 2815.1
PRECURSOR_MZ: 452.21115
ADDUCT: [M]+
COLLISION_ENERGY: 70
INSTRUMENT_TYPE: GC-EI-Orbitrap
CHARGE: 1
PARENT_MASS: 452.21169857990924
NUM PEAKS: 2
452.21115	0.630477293720957	"Theoretical m/z 452.211091, Mass diff 0 (0.13 ppm), SMILES O=P(OC1=CC=CC=C1C(C)C)(OC2=CC=CC=C2C(C)C)OC3=CC=CC=C3C(C)C, Annotation [C27H33O4P]+, Rule of HR False"
453.21454	0.1880654926925248

COMPOUND_NAME: Vamidothion
SCANNUMBER: -1
IONMODE: positive
SPECTRUMTYPE: Centroid
FORMULA: C8H18NO4PS2
INCHIKEY: LESVOLZBIFDZGS-UHFFFAOYSA-N
SMILES: CC(C(=O)NC)SCCSP(=O)(OC)OC
AUTHORS: Price et al., RECETOX, Masaryk University (CZ)
INSTRUMENT: Q Exactive GC Orbitrap GC-MS/MS
IONIZATION: EI+
LICENSE: CC BY-NC
RETENTION_TIME: 5.5183
RETENTION_INDEX: 2125.3
PRECURSOR_MZ: 285.00922
ADDUCT: [M]+
COLLISION_ENERGY: 70
INSTRUMENT_TYPE: GC-EI-Orbitrap
CHARGE: 1
PARENT_MASS: 285.0097685799093
NUM PEAKS: 2
169.00821	0.07097836038205109	"Theoretical m/z 169.008274, Mass diff 0 (0.38 ppm), SMILES O=P(OC)(OC)SCC, Annotation [C4H11O3PS-H]+, Rule of HR True"
205.10124	0.09215028076054418

COMPOUND_NAME: alpha-1,2-Dibromo-4-(1,2-dibromoethyl)cyclohexane
SCANNUMBER: -1
IONMODE: positive
SPECTRUMTYPE: Centroid
FORMULA: C8H12Br4
INCHIKEY: PQRRSJBLKOPVJV-UHFFFAOYSA-N
SMILES: C1CC(C(CC1C(CBr)Br)Br)Br
AUTHORS: Price et al., RECETOX, Masaryk University (CZ)
INSTRUMENT: Q Exactive GC Orbitrap GC-MS/MS
IONIZATION: EI+
LICENSE: CC BY-NC
RETENTION_TIME: 5.0995
RETENTION_INDEX: 1992.5
PRECURSOR_MZ: 348.84259
ADDUCT: [M]+
COLLISION_ENERGY: 70
INSTRUMENT_TYPE: GC-EI-Orbitrap
CHARGE: 1
PARENT_MASS: 348.84313857990924
NUM PEAKS: 2
266.91901	0.5591557860237302
268.91693	0.27663155848352533

COMPOUND_NAME: alpha-Amylcinnamyl alcohol
SCANNUMBER: -1
IONMODE: positive
SPECTRUMTYPE: Centroid
FORMULA: C14H20O
INCHIKEY: LIPHCKNQPJXUQF-KAMYIIQDSA-N
SMILES: CCCCC/C(=C/C1=CC=CC=C1)/CO
AUTHORS: Price et al., RECETOX, Masaryk University (CZ)
INSTRUMENT: Q Exactive GC Orbitrap GC-MS/MS
IONIZATION: EI+
LICENSE: CC BY-NC
RETENTION_TIME: 4.0439
RETENTION_INDEX: 1688.8
PRECURSOR_MZ: 204.151
ADDUCT: [M]+
COLLISION_ENERGY: 70
INSTRUMENT_TYPE: GC-EI-Orbitrap
CHARGE: 1
PARENT_MASS: 204.15154857990925
NUM PEAKS: 2
91.05425	0.9050688031259385
115.05423	1.0	"Theoretical m/z 115.054223, Mass diff 0 (0.06 ppm), SMILES C1=CC=C(C=C1)C=CC, Annotation [C9H10-3H]+, Rule of HR True"

COMPOUND_NAME: cis-Cypermethrin_isomer1
SCANNUMBER: -1
IONMODE: positive
SPECTRUMTYPE: Centroid
FORMULA: C22H19Cl2NO3
INCHIKEY: KAATUXNTWXVJKI-NSHGMRRFSA-N
SMILES: CC1(C(C1C(=O)OC(C#N)C2=CC(=CC=C2)OC3=CC=CC=C3)C=C(Cl)Cl)C
AUTHORS: Price et al., RECETOX, Masaryk University (CZ)
INSTRUMENT: Q Exactive GC Orbitrap GC-MS/MS
IONIZATION: EI+
LICENSE: CC BY-NC
RETENTION_TIME: 7.2177
RETENTION_INDEX: 2809.3
PRECURSOR_MZ: 415.03662
ADDUCT: [M]+
COLLISION_ENERGY: 70
INSTRUMENT_TYPE: GC-EI-Orbitrap
CHARGE: 1
PARENT_MASS: 415.0371685799093
NUM PEAKS: 2
181.06467	1.0	"Theoretical m/z 181.064798, Mass diff 0 (0.71 ppm), SMILES O(C1=CC=CC=C1)C2=CC=CC(=C2)C, Annotation [C13H12O-3H]+, Rule of HR True"
285.00958	0.1042717468202385	"Theoretical m/z 285.010717, Mass diff 0.001 (0 ppm), Formula C19H6ClO"

COMPOUND_NAME: cis-Cyphenothrin
SCANNUMBER: -1
IONMODE: positive
SPECTRUMTYPE: Centroid
FORMULA: C24H25NO3
INCHIKEY: FJDPATXIBIBRIM-UHFFFAOYSA-N
SMILES: CC(=CC1C(C1(C)C)C(=O)OC(C#N)C2=CC(=CC=C2)OC3=CC=CC=C3)C
AUTHORS: Price et al., RECETOX, Masaryk University (CZ)
INSTRUMENT: Q Exactive GC Orbitrap GC-MS/MS
IONIZATION: EI+
LICENSE: CC BY-NC
RETENTION_TIME: 6.9115
RETENTION_INDEX: 2652.8
PRECURSOR_MZ: 375.18237
ADDUCT: [M]+
COLLISION_ENERGY: 70
INSTRUMENT_TYPE: GC-EI-Orbitrap
CHARGE: 1
PARENT_MASS: 375.18291857990926
NUM PEAKS: 2
181.06468	0.6705297181866475	"Theoretical m/z 181.064798, Mass diff 0 (0.65 ppm), SMILES O(C1=CC=CC=C1)C2=CC=CC(=C2)C, Annotation [C13H12O-3H]+, Rule of HR True"
209.08353	0.10903319757592415

COMPOUND_NAME: cis-Prallethrin
SCANNUMBER: -1
IONMODE: positive
SPECTRUMTYPE: Centroid
FORMULA: C19H24O3
INCHIKEY: SMKRKQBMYOFFMU-UHFFFAOYSA-N
SMILES: CC1=C(C(=O)CC1OC(=O)C2C(C2(C)C)C=C(C)C)CC#C
AUTHORS: Price et al., RECETOX, Masaryk University (CZ)
INSTRUMENT: Q Exactive GC Orbitrap GC-MS/MS
IONIZATION: EI+
LICENSE: CC BY-NC
RETENTION_TIME: 5.4313
RETENTION_INDEX: 2097.0
PRECURSOR_MZ: 286.00912
ADDUCT: [M]+
COLLISION_ENERGY: 70
INSTRUMENT_TYPE: GC-EI-Orbitrap
CHARGE: 1
PARENT_MASS: 286.00966857990926
NUM PEAKS: 2
123.11674	1.0
153.09091	0.07597254004576659	"Theoretical m/z 153.091001, Mass diff 0 (0.6 ppm), SMILES O=COC(C(=CCC#C)C)C, Annotation [C9H12O2+H]+, Rule of HR True"

COMPOUND_NAME: delta-Hexachlorocyclohexane
SCANNUMBER: -1
IONMODE: positive
SPECTRUMTYPE: Centroid
FORMULA: C6H6Cl6
INCHIKEY: JLYXXMFPNIAWKQ-GPIVLXJGSA-N
SMILES: Cl[C@H]1[C@H](Cl)[C@@H](Cl)[C@H](Cl)[C@H](Cl)[C@@H]1Cl
AUTHORS: Price et al., RECETOX, Masaryk University (CZ)
INSTRUMENT: Q Exactive GC Orbitrap GC-MS/MS
IONIZATION: EI+
LICENSE: CC BY-NC
RETENTION_TIME: 4.5953
RETENTION_INDEX: 1842.6
PRECURSOR_MZ: 281.05093
ADDUCT: [M]+
COLLISION_ENERGY: 70
INSTRUMENT_TYPE: GC-EI-Orbitrap
CHARGE: 1
PARENT_MASS: 281.05147857990926
NUM PEAKS: 2
182.93413	0.9922244956853058
218.91084	0.3884841603462439

COMPOUND_NAME: trans-Chlordane
SCANNUMBER: -1
IONMODE: positive
SPECTRUMTYPE: Centroid
FORMULA: C10H6Cl8
INCHIKEY: BIWJNBZANLAXMG-GPTKHRSPSA-N
SMILES: C1C2C(C(C1Cl)Cl)C3(C(=C(C2(C3(Cl)Cl)Cl)Cl)Cl)Cl
AUTHORS: Price et al., RECETOX, Masaryk University (CZ)
INSTRUMENT: Q Exactive GC Orbitrap GC-MS/MS
IONIZATION: EI+
LICENSE: CC BY-NC
RETENTION_TIME: 5.3753
RETENTION_INDEX: 2079.0
PRECURSOR_MZ: 409.78943
ADDUCT: [M]+
COLLISION_ENERGY: 70
INSTRUMENT_TYPE: GC-EI-Orbitrap
CHARGE: 1
PARENT_MASS: 409.78997857990925
NUM PEAKS: 2
372.82352	1.0
374.82056	0.9621013997566176

COMPOUND_NAME: trans-Cinnamaldehyde
SCANNUMBER: -1
IONMODE: positive
SPECTRUMTYPE: Centroid
FORMULA: C9H8O
INCHIKEY: KJPRLNWUNMBNBZ-QPJJXVBHSA-N
SMILES: C1=CC=C(C=C1)/C=C/C=O
AUTHORS: Price et al., RECETOX, Masaryk University (CZ)
INSTRUMENT: Q Exactive GC Orbitrap GC-MS/MS
IONIZATION: EI+
LICENSE: CC BY-NC
RETENTION_TIME: 2.5911
RETENTION_INDEX: 1278.1
PRECURSOR_MZ: 132.05693
ADDUCT: [M]+
COLLISION_ENERGY: 70
INSTRUMENT_TYPE: GC-EI-Orbitrap
CHARGE: 1
PARENT_MASS: 132.05747857990923
NUM PEAKS: 2
131.04913	1.0	"Theoretical m/z 131.04969, Mass diff 0 (0 ppm), Formula C9H7O"
132.05693	0.18038108178240703	"Theoretical m/z 132.056962, Mass diff 0 (0.24 ppm), SMILES O=CC=CC1=CC=CC=C1, Annotation [C9H8O]+, Rule of HR False"

COMPOUND_NAME: trans-Cyfluthrin_isomer1
SCANNUMBER: -1
IONMODE: positive
SPECTRUMTYPE: Centroid
FORMULA: C22H18Cl2FNO3
INCHIKEY: QQODLKZGRKWIFG-ZAAXVRCTSA-N
SMILES: CC1(C(C1C(=O)OC(C#N)C2=CC(=C(C=C2)F)OC3=CC=CC=C3)C=C(Cl)Cl)C
AUTHORS: Price et al., RECETOX, Masaryk University (CZ)
INSTRUMENT: Q Exactive GC Orbitrap GC-MS/MS
IONIZATION: EI+
LICENSE: CC BY-NC
RETENTION_TIME: 7.1605
RETENTION_INDEX: 2779.2
PRECURSOR_MZ: 401.05386
ADDUCT: [M]+
COLLISION_ENERGY: 70
INSTRUMENT_TYPE: GC-EI-Orbitrap
CHARGE: 1
PARENT_MASS: 401.05440857990925
NUM PEAKS: 2
199.05527	0.6655366604473629	"Theoretical m/z 199.055368, Mass diff 0 (0.49 ppm), SMILES FC=2C=CC(=CC=2(OC1=CC=CC=C1))C, Annotation [C13H11FO-3H]+, Rule of HR True"
206.06003	1.0	"Theoretical m/z 206.060037, Mass diff 0 (0.03 ppm), SMILES N#CCC=2C=CC=C(OC1=CC=CC=C1)C=2, Annotation [C14H11NO-3H]+, Rule of HR True"

COMPOUND_NAME: trans-Fenvalerate
SCANNUMBER: -1
IONMODE: positive
SPECTRUMTYPE: Centroid
FORMULA: C25H22ClNO3
INCHIKEY: NYPJDWWKZLNGGM-UHFFFAOYSA-N
SMILES: CC(C)C(C1=CC=C(C=C1)Cl)C(=O)OC(C#N)C2=CC(=CC=C2)OC3=CC=CC=C3
AUTHORS: Price et al., RECETOX, Masaryk University (CZ)
INSTRUMENT: Q Exactive GC Orbitrap GC-MS/MS
IONIZATION: EI+
LICENSE: CC BY-NC
RETENTION_TIME: 7.5151
RETENTION_INDEX: 2965.3
PRECURSOR_MZ: 419.12869
ADDUCT: [M]+
COLLISION_ENERGY: 70
INSTRUMENT_TYPE: GC-EI-Orbitrap
CHARGE: 1
PARENT_MASS: 419.12923857990927
NUM PEAKS: 2
225.04283	0.49084531001747367
225.07834	0.28912502766391074

COMPOUND_NAME: trans-Tetramethrin
SCANNUMBER: -1
IONMODE: positive
SPECTRUMTYPE: Centroid
FORMULA: C19H25NO4
INCHIKEY: CXBMCYHAMVGWJQ-CABCVRRESA-N
SMILES: CC(=CC1C(C1(C)C)C(=O)OCN2C(=O)C3=C(C2=O)CCCC3)C
AUTHORS: Price et al., RECETOX, Masaryk University (CZ)
INSTRUMENT: Q Exactive GC Orbitrap GC-MS/MS
IONIZATION: EI+
LICENSE: CC BY-NC
RETENTION_TIME: 6.4761
RETENTION_INDEX: 2468.0
PRECURSOR_MZ: 327.03525
ADDUCT: [M]+
COLLISION_ENERGY: 70
INSTRUMENT_TYPE: GC-EI-Orbitrap
CHARGE: 1
PARENT_MASS: 327.0357985799093
NUM PEAKS: 2
164.07054	1.0	"Theoretical m/z 164.070606, Mass diff 0 (0.4 ppm), SMILES O=C1C2=C(C(=O)N1C)CCCC2, Annotation [C9H11NO2-H]+, Rule of HR True"
165.07394	0.1358851419432427

