NAME: Hydrochlorothiazide
SCANNUMBER: 1166
RETENTIONTIME: 1.657244
PRECURSORMZ: 297.9721
PRECURSORTYPE: [M+H]+
IONMODE: Positive
SPECTRUMTYPE: Centroid
FORMULA: C7H8ClN3O4S2
INCHIKEY: JZUFKLXOESDKRF-UHFFFAOYSA-N
INCHI: 
SMILES: NS(=O)(=O)C1=CC2=C(NCNS2(=O)=O)C=C1Cl
AUTHORS: Biomarker Analytical Laboratories, RECETOX, Masaryk University (CZ)
COLLISIONENERGY: 
INSTRUMENT: LC Orbitrap Fusion Tribrid MS
INSTRUMENTTYPE: LC-ESI-Orbitrap
IONIZATION: ESI+
LICENSE: CC BY-NC
COMMENT: 
Num Peaks: 2
220.97833	11703	"Theoretical m/z 220.978766, Mass diff 0 (0 ppm), Formula C6H6ClN2O3S"
232.97813	9081	"Theoretical m/z 232.978766, Mass diff 0 (0 ppm), Formula C7H6ClN2O3S"


NAME: Levodopa_1
SCANNUMBER: 727
RETENTIONTIME: 0.7128666
PRECURSORMZ: 198.0762
PRECURSORTYPE: [M+H]+
IONMODE: Positive
SPECTRUMTYPE: Centroid
FORMULA: C9H11NO4
INCHIKEY: WTDRDQBEARUVNC-LURJTMIESA-N
INCHI: 
SMILES: N[C@@H](CC1=CC=C(O)C(O)=C1)C(O)=O
AUTHORS: Biomarker Analytical Laboratories, RECETOX, Masaryk University (CZ)
COLLISIONENERGY: 
INSTRUMENT: LC Orbitrap Fusion Tribrid MS
INSTRUMENTTYPE: LC-ESI-Orbitrap
IONIZATION: ESI+
LICENSE: CC BY-NC
COMMENT: 
Num Peaks: 2
107.04907	537691
135.04385	178345

NAME: Levodopa_2
SCANNUMBER: 1076
RETENTIONTIME: 1.048427
PRECURSORMZ: 198.0762
PRECURSORTYPE: [M+H]+
IONMODE: Positive
SPECTRUMTYPE: Centroid
FORMULA: C9H11NO4
INCHIKEY: WTDRDQBEARUVNC-LURJTMIESA-N
INCHI: 
SMILES: N[C@@H](CC1=CC=C(O)C(O)=C1)C(O)=O
AUTHORS: Biomarker Analytical Laboratories, RECETOX, Masaryk University (CZ)
COLLISIONENERGY: 
INSTRUMENT: LC Orbitrap Fusion Tribrid MS
INSTRUMENTTYPE: LC-ESI-Orbitrap
IONIZATION: ESI+
LICENSE: CC BY-NC
COMMENT: 
Num Peaks: 2
134.05994	268309	"Theoretical m/z 134.060037, Mass diff 0 (0.72 ppm), SMILES OC1=CC=CC(=C1)CCN, Annotation [C8H11NO-3H]+, Rule of HR True"
135.04385	343216

NAME: Triamterene
SCANNUMBER: 1192
RETENTIONTIME: 2.533905
PRECURSORMZ: 254.115
PRECURSORTYPE: [M+H]+
IONMODE: Positive
SPECTRUMTYPE: Centroid
FORMULA: C12H11N7
INCHIKEY: FNYLWPVRPXGIIP-UHFFFAOYSA-N
INCHI: 
SMILES: NC1=NC(N)=C2N=C(C(N)=NC2=N1)C1=CC=CC=C1
AUTHORS: Biomarker Analytical Laboratories, RECETOX, Masaryk University (CZ)
COLLISIONENERGY: 
INSTRUMENT: LC Orbitrap Fusion Tribrid MS
INSTRUMENTTYPE: LC-ESI-Orbitrap
IONIZATION: ESI+
LICENSE: CC BY-NC
COMMENT: 
Num Peaks: 2
237.0887	19002528	"Theoretical m/z 237.088321, Mass diff 0 (1.6 ppm), SMILES N1=CN=C(N)C2=NC(=C(N=C12)N)C3=CC=CC=C3, Annotation [C12H10N6-H]+, Rule of HR True"
254.11499	8105778	"Theoretical m/z 254.114866, Mass diff 0 (0.49 ppm), SMILES N1=C(N=C(N)C2=NC(=C(N=C12)N)C3=CC=CC=C3)N, Annotation [C12H11N7+H]+, Rule of HR True"

NAME: Naproxen
SCANNUMBER: 1575
RETENTIONTIME: 6.590834
PRECURSORMZ: 231.1017
PRECURSORTYPE: [M+H]+
IONMODE: Positive
SPECTRUMTYPE: Centroid
FORMULA: C14H14O3
INCHIKEY: CMWTZPSULFXXJA-SECBINFHSA-N
INCHI: 
SMILES: COC1=CC2=CC=C(C=C2C=C1)[C@@H](C)C(O)=O
AUTHORS: Biomarker Analytical Laboratories, RECETOX, Masaryk University (CZ)
COLLISIONENERGY: 
INSTRUMENT: LC Orbitrap Fusion Tribrid MS
INSTRUMENTTYPE: LC-ESI-Orbitrap
IONIZATION: ESI+
LICENSE: CC BY-NC
COMMENT: 
Num Peaks: 2
170.07236	1450568
185.09567	469414

NAME: Hydroxychloroquine_1
SCANNUMBER: 715
RETENTIONTIME: 0.7305885
PRECURSORMZ: 336.184
PRECURSORTYPE: [M+H]+
IONMODE: Positive
SPECTRUMTYPE: Centroid
FORMULA: C18H26ClN3O
INCHIKEY: XXSMGPRMXLTPCZ-AWEZNQCLSA-N
INCHI: 
SMILES: CCN(CCO)CCC[C@H](C)NC1=C2C=CC(Cl)=CC2=NC=C1
AUTHORS: Biomarker Analytical Laboratories, RECETOX, Masaryk University (CZ)
COLLISIONENERGY: 
INSTRUMENT: LC Orbitrap Fusion Tribrid MS
INSTRUMENTTYPE: LC-ESI-Orbitrap
IONIZATION: ESI+
LICENSE: CC BY-NC
COMMENT: 
Num Peaks: 2
191.03661	374324
247.09979	1130644	"Theoretical m/z 247.099659, Mass diff 0 (0.53 ppm), SMILES ClC=1C=CC=2C(=NC=CC2NC(C)CCC)C1, Annotation [C14H17ClN2-H]+, Rule of HR True"

NAME: Carbidopa_2
SCANNUMBER: 1055
RETENTIONTIME: 1.111739
PRECURSORMZ: 227.1028
PRECURSORTYPE: [M+H]+
IONMODE: Positive
SPECTRUMTYPE: Centroid
FORMULA: C10H14N2O4
INCHIKEY: TZFNLOMSOLWIDK-JTQLQIEISA-N
INCHI: 
SMILES: C[C@@](CC1=CC=C(O)C(O)=C1)(NN)C(O)=O
AUTHORS: Biomarker Analytical Laboratories, RECETOX, Masaryk University (CZ)
COLLISIONENERGY: 
INSTRUMENT: LC Orbitrap Fusion Tribrid MS
INSTRUMENTTYPE: LC-ESI-Orbitrap
IONIZATION: ESI+
LICENSE: CC BY-NC
COMMENT: 
Num Peaks: 2
123.04403	2045870	"Theoretical m/z 123.044056, Mass diff 0 (0.21 ppm), SMILES OC1=CC=C(C=C1O)C, Annotation [C7H8O2-H]+, Rule of HR True"
146.05997	930734	"Theoretical m/z 146.060042, Mass diff 0 (0.5 ppm), SMILES OC1=CC=CC(=C1)CC(N)C, Annotation [C9H13NO-5H]+, Rule of HR True"

NAME: Folic acid
SCANNUMBER: 1090
RETENTIONTIME: 3.005769
PRECURSORMZ: 442.1473
PRECURSORTYPE: [M+H]+
IONMODE: Positive
SPECTRUMTYPE: Centroid
FORMULA: C19H19N7O6
INCHIKEY: OVBPIULPVIDEAO-LBPRGKRZSA-N
INCHI: 
SMILES: NC1=NC(=O)C2=C(N1)N=CC(CNC1=CC=C(C=C1)C(=O)N[C@@H](CCC(O)=O)C(O)=O)=N2
AUTHORS: Biomarker Analytical Laboratories, RECETOX, Masaryk University (CZ)
COLLISIONENERGY: 
INSTRUMENT: LC Orbitrap Fusion Tribrid MS
INSTRUMENTTYPE: LC-ESI-Orbitrap
IONIZATION: ESI+
LICENSE: CC BY-NC
COMMENT: 
Num Peaks: 2
295.09335	2026215	"Theoretical m/z 295.093799, Mass diff 0 (1.52 ppm), SMILES O=CC1=CC=C(C=C1)NCC=2N=C3C(=O)N=C(N)NC3=NC2, Annotation [C14H12N6O2-H]+, Rule of HR True"
313.10416	106081	"Theoretical m/z 313.105694, Mass diff 0.002 (4.9 ppm), SMILES O=CC(N=CCNC1=CC=C(C=C1)C(=O)NC(C(=O)O)CC)=C, Annotation [C16H19N3O4-4H]+, Rule of HR False"

NAME: Tomoxetine
SCANNUMBER: 1056
RETENTIONTIME: 3.837629
PRECURSORMZ: 256.1696
PRECURSORTYPE: [M+H]+
IONMODE: Positive
SPECTRUMTYPE: Centroid
FORMULA: C17H21NO
INCHIKEY: VHGCDTVCOLNTBX-KRWDZBQOSA-N
INCHI: 
SMILES: CNCC[C@H](OC1=CC=CC=C1C)C1=CC=CC=C1
AUTHORS: Biomarker Analytical Laboratories, RECETOX, Masaryk University (CZ)
COLLISIONENERGY: 
INSTRUMENT: LC Orbitrap Fusion Tribrid MS
INSTRUMENTTYPE: LC-ESI-Orbitrap
IONIZATION: ESI+
LICENSE: CC BY-NC
COMMENT: 
Num Peaks: 3
241.9537	19711
256.16953	880039	"Theoretical m/z 256.169584, Mass diff 0 (0.21 ppm), SMILES O(C=1C=CC=CC1C)C(C=2C=CC=CC2)CCNC, Annotation [C17H21NO+H]+, Rule of HR True"
256.26309	14983

NAME: Levetiracetam
SCANNUMBER: 1064
RETENTIONTIME: 1.391959
PRECURSORMZ: 171.1127
PRECURSORTYPE: [M+H]+
IONMODE: Positive
SPECTRUMTYPE: Centroid
FORMULA: C8H14N2O2
INCHIKEY: HPHUVLMMVZITSG-LURJTMIESA-N
INCHI: 
SMILES: CCC(N1CCCC1=O)C(=N)O
AUTHORS: Biomarker Analytical Laboratories, RECETOX, Masaryk University (CZ)
COLLISIONENERGY: 
INSTRUMENT: LC Orbitrap Fusion Tribrid MS
INSTRUMENTTYPE: LC-ESI-Orbitrap
IONIZATION: ESI+
LICENSE: CC BY-NC
COMMENT: low MS2 spectra quality
Num Peaks: 3
98.06008	7534	"Theoretical m/z 98.060039, Mass diff 0 (0.42 ppm), SMILES O=C1N(C)CCC1, Annotation [C5H9NO-H]+, Rule of HR True"
98.09631	37218	"Theoretical m/z 98.096422, Mass diff 0 (1.14 ppm), SMILES N(CCC)CCC, Annotation [C6H15N-3H]+, Rule of HR True"
126.09106	260383	"Theoretical m/z 126.091343, Mass diff 0 (2.24 ppm), SMILES O=C1N(CCC)CCC1, Annotation [C7H13NO-H]+, Rule of HR True"

NAME: Loratadine
SCANNUMBER: 2177
RETENTIONTIME: 6.992672
PRECURSORMZ: 383.1527
PRECURSORTYPE: [M+H]+
IONMODE: Positive
SPECTRUMTYPE: Centroid
FORMULA: C22H23ClN2O2
INCHIKEY: JCCNYMKQOSZNPW-UHFFFAOYSA-N
INCHI: 
SMILES: CCOC(=O)N1CCC(CC1)=C1C2=C(CCC3=C1N=CC=C3)C=C(Cl)C=C2
AUTHORS: Biomarker Analytical Laboratories, RECETOX, Masaryk University (CZ)
COLLISIONENERGY: 
INSTRUMENT: LC Orbitrap Fusion Tribrid MS
INSTRUMENTTYPE: LC-ESI-Orbitrap
IONIZATION: ESI+
LICENSE: CC BY-NC
COMMENT: 
Num Peaks: 37
267.08072	25172082	"Theoretical m/z 267.080939, Mass diff 0 (0.82 ppm), SMILES ClC1=CC=C2C(=CCC)C3=NC=CC=C3CCC2=C1, Annotation [C17H16ClN-2H]+, Rule of HR False"
337.10974	10984031	"Theoretical m/z 337.110218, Mass diff 0 (1.42 ppm), SMILES O=CN1CCC(=C2C=3N=CC=CC3CCC=4C=C(Cl)C=CC42)CC1, Annotation [C20H19ClN2O-H]+, Rule of HR True"
